LAMMPS data file via write_data, version 29 Sep 2021, timestep = 53752000

400 atoms
2 atom types
404 bonds
1 bond types

-3.12 3.12 xlo xhi
-3.12 3.12 ylo yhi
-15.6 15.6 zlo zhi

Masses

1 1
2 1

Atoms # angle

316 0 2 -1.001698876770002 -2.2596852863281116 -14.882294987478303 0 0 0
298 0 2 1.8741816106657103 -0.09213589273128081 -13.000943790507272 0 0 0
297 0 2 1.8496137831951462 -0.07419468543271074 -13.941933960557751 0 0 0
315 0 2 -0.6254513100918779 -1.3996083920347908 -14.980356983320439 0 0 0
314 0 2 -0.116859945168098 -1.4132937956690483 -14.177232208329658 0 0 0
313 0 2 0.37875037459403277 -0.5914789810958939 -14.086986164324422 0 0 0
299 0 2 1.2329748112012746 0.5777704582241788 -13.009335823643948 0 0 0
300 0 2 0.4925947649343013 1.183053043954591 -12.974940431551184 0 0 0
304 0 2 1.5237182038625448 1.6988103892920556 -13.478902444495407 0 0 0
305 0 2 0.7172592728279227 2.0024977241875797 -13.951197374188634 0 0 0
311 0 2 -0.938039515301807 0.32864987412897545 -14.355682246775789 0 0 0
308 0 2 -0.7402575206348827 1.3028195068397537 -14.294032219981023 0 0 0
307 0 2 -0.09949279974585545 1.896602375194332 -14.666933986571124 0 0 0
312 0 2 -0.2743164592759323 -0.26004578885843177 -14.801725660446985 0 0 0
306 0 2 -0.18300375970345267 2.1679724705438437 -13.696433144337968 0 0 0
318 0 2 -1.7675898024732466 -1.0999974378096136 -15.059601145395709 0 0 0
317 0 2 -1.5379129477562208 -1.6750292918392842 -14.302694291237035 0 0 0
321 0 2 -1.48330025761057 -1.627689743328253 -13.312970500852709 0 0 0
293 0 2 0.7614642507223577 -0.5772680632873121 -12.867847792257312 0 0 0
296 0 2 2.1909238155323782 -0.4177905646320361 -14.772856151797075 0 0 0
295 0 2 1.4805667137383218 -0.9465125258687819 -14.304796448216592 0 0 0
179 0 1 -2.5752949093644184 0.03828923650889379 -13.330674350876746 0 0 0
319 0 2 -2.262962169062941 -0.8613494504490313 -14.271769921274718 0 0 0
180 0 1 -2.481107277372979 -0.2836194292711972 -12.400375999242756 0 0 0
320 0 2 -2.1356279600449755 -0.9601424816650045 -13.310178317384851 0 0 0
291 0 2 1.480058004263447 0.20598535514807598 -11.875131097385179 0 0 0
292 0 2 0.9809993509430877 -0.6185150361998487 -11.894807029468652 0 0 0
181 0 1 -1.6301661550360649 0.1958876206437854 -12.575788283056143 0 0 0
301 0 2 0.6967773220279772 2.153472510339126 -12.83630050715157 0 0 0
302 0 2 1.1015822916435063 1.8720738777285604 -12.008576804015759 0 0 0
303 0 2 1.785507525675225 1.5293082294767235 -12.546740613426152 0 0 0
177 0 1 -0.7989099704449678 0.6388870730295387 -13.2861371015966 0 0 0
178 0 1 -1.6554934710125149 0.28404162439277264 -13.559955528620165 0 0 0
176 0 1 -1.1485034003221093 1.525400852112506 -13.10646101084791 0 0 0
309 0 2 -1.5169012991434578 1.7739641532625534 -14.46410721301773 0 0 0
310 0 2 -1.618853748182693 0.9137291116051527 -14.843589830654333 0 0 0
168 0 1 -0.6821123149921842 -2.0516519910088884 -10.364361511704105 0 0 0
323 0 2 -0.5654753730030102 -2.0508311009940257 -12.549753643103951 0 0 0
322 0 2 -0.758166235152267 -1.1853513093553019 -12.914186457825387 0 0 0
294 0 2 1.4108484125688612 -1.1614987354765207 -13.342612861853594 0 0 0
169 0 1 -0.49509966638002384 -1.1770929605573184 -10.59004503840302 0 0 0
171 0 1 -1.8648958659620067 -0.5522701021861095 -10.537482614508153 0 0 0
170 0 1 -1.4037459734175657 -1.3199358229983837 -10.269665322959725 0 0 0
182 0 1 -0.9376514462271529 0.33232770166553266 -11.89223826410607 0 0 0
289 0 2 2.506973407393016 -0.3521711035045004 -11.023357514901615 0 0 0
183 0 1 0.04150228097248513 0.22398279918140268 -11.971754968832554 0 0 0
284 0 2 1.2228304197133346 2.0809753357247747 -10.975258152430841 0 0 0
290 0 2 2.254531232640759 0.4981401920340475 -11.408026088693124 0 0 0
288 0 2 2.0805761673419743 -0.13398664038108168 -10.120160163534313 0 0 0
285 0 2 1.6088752315945272 1.333574564531656 -10.634672452642318 0 0 0
175 0 1 -1.937225017108859 1.2933731752996946 -12.529683588358234 0 0 0
174 0 1 -1.8404587851867316 1.5682105613951818 -11.565705431785519 0 0 0
172 0 1 -1.5844660977299985 -0.107265008398246 -11.315326455744218 0 0 0
173 0 1 -2.1917070846460214 0.6627609381829737 -11.558023958299067 0 0 0
281 0 2 -0.24007933426300446 2.080006051051519 -10.455081243997428 0 0 0
282 0 2 -0.04451402908342532 1.5239987459709587 -11.22760758401449 0 0 0
283 0 2 0.5684396752880918 1.4268247272464938 -10.53096777985548 0 0 0
167 0 1 0.1661333311262731 -2.5250428237174547 -10.053742633571348 0 0 0
325 0 2 0.20020277573386638 -2.48783814716102 -11.215981099823509 0 0 0
326 0 2 1.1636017876651223 -2.333625801520942 -11.51718436771326 0 0 0
328 0 2 1.1931006296595321 -1.7416099446503646 -9.629827856673542 0 0 0
329 0 2 0.7814160379025588 -1.6837181268222428 -8.815445627656452 0 0 0
276 0 2 -1.5630833751994047 1.1716881571334243 -10.006631951527174 0 0 0
166 0 1 -0.16868046385337582 -1.911354710747356 -9.413253694232948 0 0 0
274 0 2 -2.2917307601100916 1.07891395960352 -9.090334831771102 0 0 0
275 0 2 -2.440637743702917 0.7979412117557614 -9.964204179258388 0 0 0
324 0 2 -0.5666942930142352 -2.093997816281613 -11.61044206770125 0 0 0
327 0 2 1.1522928544788527 -2.095316987877799 -10.590184999878549 0 0 0
184 0 1 -0.34063727974397096 0.07600796993727686 -11.14060881790183 0 0 0
186 0 1 0.22087322884830302 -0.8326410191701135 -9.56440291301492 0 0 0
187 0 1 0.08364669121323012 0.1255931332590015 -9.35594426682516 0 0 0
185 0 1 0.153088138598621 -0.26665488658785 -10.326045710976942 0 0 0
287 0 2 2.2077885435409055 0.749742005562314 -9.786272851292082 0 0 0
286 0 2 1.3276719781250486 1.2533252847691418 -9.716839720882707 0 0 0
277 0 2 -1.621848627749691 1.884120336027057 -9.397878732912794 0 0 0
280 0 2 0.22278018107387076 1.9311251591715606 -9.63864967941666 0 0 0
279 0 2 0.1762663053063505 2.3925310882231905 -8.801600468722238 0 0 0
278 0 2 -0.8213226986011464 2.2127595464305063 -9.035042708509273 0 0 0
188 0 1 -0.00313959620985729 0.8893024956821549 -8.725647627534254 0 0 0
12 0 1 -1.9692343800245053 -1.5870546556323233 -8.47097476370505 0 0 0
13 0 1 -1.6221591454684614 -0.7645254778015882 -8.219232489169027 0 0 0
330 0 2 0.09416915428965283 -1.743481957677286 -8.138531900784779 0 0 0
165 0 1 -1.0859188568381883 -1.6045788721767702 -9.189239496941704 0 0 0
164 0 1 -1.1421005850965833 -0.6316190481081402 -9.415877425372978 0 0 0
331 0 2 0.25106473821808845 -2.182956727298059 -7.349054291911981 0 0 0
273 0 2 -1.7848509810337578 0.574403253111891 -8.391667343047118 0 0 0
272 0 2 -1.289118698255355 1.4009062237373624 -8.247792699386908 0 0 0
163 0 1 -0.5676090642255323 -0.7141148156610332 -8.656477466710017 0 0 0
162 0 1 0.25347977788198817 -0.43215713580505755 -8.213890578472036 0 0 0
161 0 1 0.909266322072322 0.2421242883821651 -8.568659888853178 0 0 0
29 0 1 1.813071169057191 -1.5269669966923098 -8.661614748127066 0 0 0
30 0 1 1.3707198651102581 -1.7390854970170526 -7.829749820813476 0 0 0
31 0 1 1.160340563922423 -2.2266083450948524 -7.048670696999051 0 0 0
28 0 1 2.365168837604525 -0.6970837542750276 -8.513828222034896 0 0 0
160 0 1 1.4719739587881002 0.970951147488103 -8.624559965597511 0 0 0
271 0 2 -1.3279623274918944 1.8076589511194072 -7.372814792752169 0 0 0
189 0 1 -0.3871308420892535 0.6885969815429895 -7.847004959920096 0 0 0
190 0 1 -0.06047880159430274 1.1168025631551537 -6.991749066214688 0 0 0
191 0 1 0.13415345016952637 2.0535542750836506 -7.1311467873608425 0 0 0
159 0 1 1.0863895106364778 1.259474349298297 -7.758748701386599 0 0 0
15 0 1 -1.2947402516240598 -0.31628388222395376 -6.902147296553767 0 0 0
11 0 1 -1.2887102056166184 -2.139642117644503 -8.096361527177462 0 0 0
332 0 2 0.02868304673730715 -2.5773292317907064 -6.49283703723282 0 0 0
10 0 1 -0.7160907493334554 -2.1234317230984434 -7.358962950823373 0 0 0
333 0 2 0.2427506165155965 -2.5222541945540606 -5.53541206630648 0 0 0
32 0 1 1.6884624201549752 -1.560481494800568 -6.634641678376358 0 0 0
33 0 1 1.4482717649079142 -1.1260413786041905 -5.82371694325673 0 0 0
16 0 1 -1.6288850561584618 -1.1559903757400203 -6.612851386198914 0 0 0
270 0 2 -1.1581745781746662 1.2535011771628979 -6.579910939287557 0 0 0
14 0 1 -1.0904580609281176 -1.0496725038725843 -7.510230887859195 0 0 0
17 0 1 -2.296288048571612 -1.1084120136550215 -5.894453089504897 0 0 0
18 0 1 -1.6551594124203322 -1.209101001558681 -5.189416667069327 0 0 0
25 0 1 0.9835867874690754 -0.6115561016829644 -6.855111449808787 0 0 0
23 0 1 0.3635517628584801 -0.7688703660939316 -5.9381229580176225 0 0 0
22 0 1 -0.03195009651880712 -0.0285519805169235 -5.5612205336607525 0 0 0
27 0 1 2.4099569380339894 -0.3913173434402683 -7.591034380744539 0 0 0
26 0 1 1.5083489172527493 -0.6580447978409127 -7.638932039877663 0 0 0
34 0 1 2.162132456065153 -0.604628976057779 -6.1803099096949525 0 0 0
35 0 1 2.133964948476598 -0.7470321178615429 -5.2419346965484905 0 0 0
269 0 2 -0.740607321771605 1.1308531691664325 -5.746336561707183 0 0 0
158 0 1 0.9812089612513949 0.9081004239050976 -6.832792815965746 0 0 0
193 0 1 0.7543926365902772 2.2807355402887595 -6.0025896622148815 0 0 0
192 0 1 1.056147307104901 2.19921637648084 -6.894085525672472 0 0 0
156 0 1 0.9599926087107925 0.4001884408436123 -5.261284797218394 0 0 0
157 0 1 1.0546803426570872 0.16012734341565318 -6.193907386020223 0 0 0
7 0 1 -0.7652436578538694 -1.7801140590841653 -5.0224397151658104 0 0 0
8 0 1 -1.1637571516393548 -2.201245283289697 -5.738575347799576 0 0 0
6 0 1 -0.36741443439212945 -2.1537732827234186 -4.189090366316166 0 0 0
9 0 1 -0.7784874972251069 -1.7460979432206118 -6.424066229788897 0 0 0
335 0 2 0.7992155318162542 -2.369090265483853 -4.665357472671094 0 0 0
334 0 2 0.6629109562022079 -1.6788377557744727 -5.350276749974322 0 0 0
21 0 1 0.1348856047570621 -0.16387522971663965 -4.547334654881051 0 0 0
19 0 1 -1.7008968305878949 -0.31177609261652317 -5.084876690602697 0 0 0
20 0 1 -0.8009213141814494 -0.29355706610125964 -4.811995745528457 0 0 0
24 0 1 0.5481843487204701 -1.46513848842768 -6.610112882106037 0 0 0
153 0 1 0.43288411537695753 0.7242042661451513 -3.979542983716024 0 0 0
36 0 1 1.9572985015795479 0.15970693806753483 -5.380163060884336 0 0 0
38 0 1 2.404260297339267 -0.9518135798852583 -4.123838262017861 0 0 0
37 0 1 1.9068765958175213 -0.1876893007645709 -4.416374174920884 0 0 0
268 0 2 -1.6159306984183968 0.9432734297904463 -5.271729741955426 0 0 0
267 0 2 -1.906642016111904 1.4656149594145909 -4.506112030312127 0 0 0
155 0 1 1.4935178478762186 1.1036060863783683 -4.817118237576342 0 0 0
154 0 1 1.4072981416990098 0.5965194288016499 -3.942506896930086 0 0 0
195 0 1 -0.6122650663815834 2.327565251421421 -6.0459642177854915 0 0 0
194 0 1 0.05344807802948308 1.6397678591094507 -6.0741275196942395 0 0 0
196 0 1 -0.34317804395675255 2.5398824068593795 -5.154262404996833 0 0 0
197 0 1 0.4465018200943903 2.2443599496854536 -4.727524858912312 0 0 0
336 0 2 1.4770635383147703 -1.9680553107694883 -4.033490946928756 0 0 0
55 0 1 0.04118564998949709 -2.053752300268974 -0.6158181178133354 0 0 0
54 0 1 0.10881185228179943 -2.4003575644854425 -1.5108362985026842 0 0 0
39 0 1 2.0569649492064785 -0.5115853993093358 -3.3822091145902586 0 0 0
40 0 1 1.6362696713881388 0.010168425698462836 -2.7174611898599847 0 0 0
5 0 1 -0.6508944163248006 -2.4365909159098096 -3.344322801238553 0 0 0
4 0 1 -1.2101426623872198 -1.6889572486817872 -3.422855152761684 0 0 0
3 0 1 -0.4807926289465033 -1.0402652854543122 -3.5071402026534844 0 0 0
199 0 1 1.060995496401833 1.960468247141986 -2.9431830805583603 0 0 0
42 0 1 2.016455730359018 0.9953285489228991 -1.6000031280634963 0 0 0
198 0 1 0.5285549132475835 2.03129515181615 -3.7860687269049422 0 0 0
266 0 2 -1.8740987999290346 0.971003219432832 -3.728938725980101 0 0 0
264 0 2 -1.913591057395002 -0.15105406842353994 -3.296409047046908 0 0 0
265 0 2 -1.3545233417895772 0.1560333357352493 -3.9903891062102583 0 0 0
152 0 1 -0.34318550083208815 1.1342716613786141 -3.6910649308441417 0 0 0
150 0 1 -0.863003814954023 1.1299236256745413 -2.7335776518816766 0 0 0
151 0 1 -0.11864742594352251 1.7041418043434113 -2.9429193128060067 0 0 0
149 0 1 -1.7161441683041907 1.7058601466542462 -2.5412251886976414 0 0 0
200 0 1 0.6700414778353331 1.0941925212459316 -2.813695135528005 0 0 0
57 0 1 -1.2725760799404815 -1.7112505319937552 -0.057509290480482256 0 0 0
58 0 1 -1.0882191159828367 -0.8817603126432025 -0.42961155912375315 0 0 0
337 0 2 1.0549308835575508 -2.2633452008131982 -3.2513419292095334 0 0 0
53 0 1 -0.616925045872683 -2.317954991042495 -2.0857701376187037 0 0 0
52 0 1 -1.043031391688003 -1.4188216834385654 -1.9671358999586683 0 0 0
56 0 1 -0.7675872546589861 -2.476164794540748 -0.251443475468409 0 0 0
339 0 2 1.5516750978225058 -1.8002101713758512 -2.073983587961551 0 0 0
41 0 1 1.9221416933232998 -0.012110986983204251 -1.7688423528749595 0 0 0
338 0 2 0.7140896334144344 -1.6374963765718942 -2.6073162006221584 0 0 0
263 0 2 -2.246797776877944 -0.6770158662744196 -2.5127740336662745 0 0 0
262 0 2 -2.3755430432143445 0.20515356250407096 -2.2426391769261333 0 0 0
261 0 2 -1.5929416643351237 0.040770150395080175 -1.6917083575797618 0 0 0
260 0 2 -2.4588804202426773 0.5685818584664951 -1.3223496103788375 0 0 0
1 0 1 0.17904325116679282 0.26760620964958204 -2.5391579012635677 0 0 0
2 0 1 0.13670877389874814 -0.7186827254420132 -2.846417870331186 0 0 0
50 0 1 -0.17396522620860266 -0.133795004030906 -1.7736174507202682 0 0 0
51 0 1 -0.23997974382726878 -1.0588444849382364 -1.478590307082665 0 0 0
48 0 1 0.12308986292174642 0.7439841100001774 -0.5321574474242458 0 0 0
43 0 1 1.131530245667565 1.089645693534946 -1.8636654664445758 0 0 0
44 0 1 1.7567181804862466 1.9255631790224048 -1.973380909051063 0 0 0
148 0 1 -1.7981222388077374 1.6700292023125245 -1.524666622383256 0 0 0
147 0 1 -0.8919551560036441 2.023520060554771 -1.6534153182772664 0 0 0
46 0 1 0.803169256558709 1.4938225836069279 -0.9136832217264009 0 0 0
47 0 1 -0.054314496890367304 1.3285421631161576 -1.3260955121772067 0 0 0
45 0 1 1.1080592141783518 2.2865127063360813 -1.443502001153808 0 0 0
59 0 1 -0.3146812844742644 -0.3748509240715861 -0.2270104864400651 0 0 0
60 0 1 -0.32164099220473713 0.4106543614068942 0.3501065980823584 0 0 0
341 0 2 1.073078491820643 -2.1259777354791427 -0.44992864900937746 0 0 0
211 0 2 -0.13559158923775458 -1.834705644432383 1.5411405975805879 0 0 0
340 0 2 0.902263665068178 -1.8440151198845594 -1.3703322569225533 0 0 0
342 0 2 1.182814520932933 -1.202866518139347 -0.09690074947123899 0 0 0
258 0 2 -1.9062140851577862 -0.03200494872472114 0.28087033818567675 0 0 0
257 0 2 -1.1142989160917711 -0.3348462886843747 0.8132628421279926 0 0 0
259 0 2 -1.9108410661339983 0.27697868982304985 -0.6113464533985608 0 0 0
256 0 2 -1.1671343715887197 0.1536357715040019 1.6753173614048047 0 0 0
49 0 1 0.3991623205659316 0.06664331191636999 -1.0894528741702556 0 0 0
144 0 1 0.9983543797813703 2.276453362025154 -0.3170773193387987 0 0 0
140 0 1 0.7274815694974275 -0.25880336590543923 0.033926103091426525 0 0 0
141 0 1 1.6437888600791533 -0.14443204739320814 -0.2977324511897138 0 0 0
139 0 1 1.2443504295639052 0.10932274756841885 0.772950035657382 0 0 0
142 0 1 1.824531433405956 0.7531419611363905 -0.4014379680607522 0 0 0
343 0 2 0.8774812616902815 -1.741493532333756 0.6279214599344596 0 0 0
146 0 1 -0.5863115419102388 2.180467691951961 -0.7864828352757404 0 0 0
145 0 1 0.06956840917543554 2.028665216434645 -0.08907335152042521 0 0 0
213 0 2 1.17936059611485 -2.296529003679104 1.9984796372219025 0 0 0
212 0 2 0.2861311615532866 -2.1508722930476973 2.3375562466795325 0 0 0
210 0 2 -0.7665279563721072 -1.6462106409897643 0.7969654008346251 0 0 0
208 0 2 -1.447595477269319 -1.9451871329360062 1.6385232046850835 0 0 0
209 0 2 -1.6972966546222341 -1.3750412669784668 0.8526133839761434 0 0 0
217 0 2 0.9370301670197974 -1.3758858210470601 2.9557090911899233 0 0 0
214 0 2 1.733314160847471 -1.6141155162207255 1.6003002260865 0 0 0
215 0 2 2.344094416471793 -1.1281565279833268 2.2483761225641357 0 0 0
216 0 2 1.44860286508165 -0.8362107705447396 2.346144120770245 0 0 0
254 0 2 -2.469453976866045 0.43602163568639074 1.0822963629146491 0 0 0
63 0 1 -0.9553202690456043 2.1825322751097542 0.7520692978995818 0 0 0
255 0 2 -2.06441686532033 -0.1635851305867705 1.7397800655422881 0 0 0
61 0 1 -0.8525327620405875 1.0007471749574746 0.8679012313953313 0 0 0
344 0 2 0.8383463824928531 -1.1592712882368437 1.39205741592313 0 0 0
62 0 1 -1.6307594389477529 1.500869045142873 0.9509994379832891 0 0 0
345 0 2 0.20336688666783823 -0.45273670653891906 1.5260204143808933 0 0 0
138 0 1 2.2727815186615223 -0.060312271134421544 1.007210571485389 0 0 0
137 0 1 2.3770944191728614 0.7925699037184523 1.481991917122263 0 0 0
64 0 1 -0.0193098881189303 2.183348660251469 1.2436182471114061 0 0 0
135 0 1 1.9488211579793668 0.6488207459619872 2.7838840199650803 0 0 0
65 0 1 0.29577080232422015 1.3222213430991057 1.2738768032563028 0 0 0
66 0 1 0.515393702458603 1.2015781161580628 2.2284736981509314 0 0 0
143 0 1 1.8039760864158716 1.706885489031911 -0.14182151024756 0 0 0
205 0 2 -0.4378216007794537 -2.2693803532000287 3.1925937001903284 0 0 0
206 0 2 -1.0991038844170975 -1.8793577868654192 2.6287607594847247 0 0 0
207 0 2 -1.659735486939747 -1.21162107266585 2.227550693332961 0 0 0
218 0 2 1.4995845437955078 -1.3007061615980917 3.6569304273990446 0 0 0
348 0 2 -0.6310964907579917 -0.3731121880324514 3.122053270846624 0 0 0
228 0 2 -0.051093738133451826 -2.233912569070138 5.124818847497621 0 0 0
219 0 2 2.2693672408621537 -0.9280114121117968 4.066994291873139 0 0 0
347 0 2 -0.33289576166835805 0.487789236156995 2.8825210507394683 0 0 0
252 0 2 -1.8098617127185803 1.485332771147282 2.6060151599886363 0 0 0
253 0 2 -2.0364101748125067 0.8089416109332109 1.8885774461436218 0 0 0
251 0 2 -2.08976476092566 0.8589996665404496 3.2769705804068603 0 0 0
346 0 2 0.2534816066670537 -0.05622930560652417 2.3848702905816506 0 0 0
134 0 1 2.0526453638887467 0.9099422710760294 3.7299881315259142 0 0 0
133 0 1 1.128076797355324 0.6241157468580583 3.6197228062415077 0 0 0
227 0 2 0.17436479546964237 -1.4446606109954228 4.640661071690419 0 0 0
136 0 1 1.489750559754447 0.8177224701137593 1.8879576422513111 0 0 0
220 0 2 1.9771362777696464 -0.20823014361363756 3.5310846007065164 0 0 0
221 0 2 2.5951367138231745 0.036165083180732235 4.270445944798466 0 0 0
222 0 2 2.1517229883714832 0.5468126734105303 4.962936089249265 0 0 0
223 0 2 2.028319017450815 -0.3806082388955736 5.221932340248492 0 0 0
67 0 1 0.40022753302977676 2.1746060952833437 2.316843855527918 0 0 0
68 0 1 0.884697148070345 1.7715325084960278 3.0495083475440223 0 0 0
204 0 2 -0.9357093810196982 -2.069773198288745 4.023326705142863 0 0 0
349 0 2 0.04625996396588622 -0.4129233597062216 3.764786151118523 0 0 0
230 0 2 1.675697635879318 -1.6545708476382734 5.611202999054856 0 0 0
229 0 2 0.9599064827976808 -2.087856247077358 5.096653700604461 0 0 0
400 0 2 -1.2501336095434201 -0.7905028924281655 5.165979656823829 0 0 0
231 0 2 1.8034553617075617 -0.9648786352516775 6.222075299144498 0 0 0
203 0 2 -1.4972434907684369 -1.6544112782001703 4.628118960580203 0 0 0
202 0 2 -1.7794411638603 -0.8562174728192616 4.1849573100163395 0 0 0
201 0 2 -1.6825861057708633 -0.019418318342910378 4.758710204887217 0 0 0
250 0 2 -1.5796305079120971 0.20019091455120164 3.813441795816352 0 0 0
226 0 2 0.7218902870991137 -0.8508974794157974 5.227824547101466 0 0 0
350 0 2 -0.3570831969401613 -0.5379165861454083 4.6270591897685245 0 0 0
351 0 2 -0.4118070201061291 -0.9515616343114738 5.6010475742738155 0 0 0
224 0 2 1.3443202692457858 0.14364724793957817 5.598329130225973 0 0 0
225 0 2 0.44543825326634334 0.0341444484477667 5.359852484445553 0 0 0
249 0 2 -1.2694376058993924 1.1051665839847749 3.940537863007678 0 0 0
130 0 1 -0.7567136267874972 2.223078007703587 3.751214886797771 0 0 0
248 0 2 -1.50992656530056 1.6494368586928234 4.699103391793611 0 0 0
132 0 1 0.19921871948578618 0.9407665136473011 3.708405843320216 0 0 0
131 0 1 -0.1771449744351289 1.632591853000523 3.2005531628872586 0 0 0
69 0 1 0.8651635254050751 1.6583998267025126 4.0027958991138375 0 0 0
70 0 1 1.0574777308179557 2.075857595539318 4.8370463726970305 0 0 0
71 0 1 1.0221751582686303 2.1202638885682874 5.791260255279385 0 0 0
398 0 2 -1.4075891356327446 -2.095590681858948 6.341868787769907 0 0 0
399 0 2 -1.6621593853224084 -1.2474624103265615 5.934227470624221 0 0 0
232 0 2 2.487693596357098 -0.4035739803974773 6.540572221893605 0 0 0
233 0 2 1.6443450502138202 0.15807563553347198 6.774192310832663 0 0 0
357 0 2 -2.370212442181332 -0.6251891434706893 7.8252059221239865 0 0 0
355 0 2 -1.0949746588207714 -0.8016252153026335 7.477041863561554 0 0 0
356 0 2 -1.752380725815448 -1.3339058884608765 8.024992468918684 0 0 0
358 0 2 -2.5347659644366094 0.26462314334479375 7.304486335058394 0 0 0
352 0 2 0.33210649800729447 -1.320739928542512 6.162678497958009 0 0 0
353 0 2 0.3626517076406573 -0.48791859335840443 6.629612489289725 0 0 0
354 0 2 -0.39323866112362077 -0.9898069277301906 6.849643072713361 0 0 0
74 0 1 1.1708605866975959 1.3901688859187158 7.981051971384291 0 0 0
75 0 1 2.1144320653607473 1.4884458086324195 7.739246272620969 0 0 0
247 0 2 -1.7720280596604079 1.9234626571201638 5.606588256960002 0 0 0
129 0 1 -0.4664207362433741 1.8002009033285509 4.582687775328392 0 0 0
246 0 2 -2.03503555425764 1.0670178913447914 5.889819845562213 0 0 0
128 0 1 -0.5667442548459072 1.5761850920375764 5.51536649608458 0 0 0
245 0 2 -1.8103177072564802 1.5122553301775836 6.716532372417863 0 0 0
72 0 1 1.2638979931739782 1.797368125381896 6.6682415525845355 0 0 0
73 0 1 1.0186229981345287 0.9603483125770035 7.194285546879758 0 0 0
396 0 2 -0.9525205475317212 -2.4128388060976276 7.761972705822359 0 0 0
397 0 2 -0.6730163752374906 -2.4705777800243682 6.839564345125311 0 0 0
234 0 2 2.1003407333314628 -0.30877677967938555 7.525539050853186 0 0 0
236 0 2 0.9115407869498111 -1.3512413912650716 7.055499925288423 0 0 0
237 0 2 0.2823688291237254 -2.044354586521834 7.008006094499497 0 0 0
235 0 2 1.5817251771182166 -1.1196467164440869 7.746388011806947 0 0 0
359 0 2 -1.8390959069259472 0.20577185310313212 7.989889534759323 0 0 0
360 0 2 -1.736098372666806 0.006111883509059844 8.949624131658753 0 0 0
241 0 2 -1.0018247415492918 0.6386116272750313 8.557513277338556 0 0 0
243 0 2 -1.1008589009073124 2.0866784531012326 7.670884430821243 0 0 0
239 0 2 -0.16531738410036761 -0.8982089454000198 8.307099269420302 0 0 0
240 0 2 -0.3688692606398849 0.05549653355082662 8.175445696393838 0 0 0
242 0 2 -0.8184168670413202 1.5493475782838289 8.456313861103897 0 0 0
76 0 1 2.4390388992449177 0.8087863165377399 8.371433620603392 0 0 0
77 0 1 2.025474383760185 0.10296284145501512 8.864106563495403 0 0 0
78 0 1 2.150753527156823 -0.7783644724592502 8.632175151161722 0 0 0
244 0 2 -1.2642669521717125 1.1122438902475658 7.42607527581662 0 0 0
127 0 1 -0.30938776134405616 1.1363259322752892 6.329788730474849 0 0 0
126 0 1 0.1618336136368215 1.9661895513753702 6.323475155355429 0 0 0
125 0 1 0.32656108838365877 2.1689019541923034 7.287333447818764 0 0 0
124 0 1 0.3622994753408897 2.1980243457898654 8.237095098177697 0 0 0
394 0 2 -1.3474347198586367 -1.8338318111437193 9.50558870722753 0 0 0
393 0 2 -1.3368180562782994 -1.5899689449724226 10.431321199512983 0 0 0
365 0 2 -0.21611852448719657 -0.644215911149902 9.482172949889883 0 0 0
238 0 2 0.0036449529600630724 -1.6949981553027327 7.848877609257114 0 0 0
368 0 2 0.41352547347312285 -2.38613741190205 10.187781684035235 0 0 0
395 0 2 -0.9805434623820891 -1.9739399321202633 8.648620846969921 0 0 0
362 0 2 -2.3091405880035882 0.15823446117202816 10.627807873341633 0 0 0
361 0 2 -2.3441667621432236 0.24408903987098435 9.685493946615077 0 0 0
364 0 2 -0.6759725466716994 0.17901182470233643 9.7350475184543 0 0 0
363 0 2 -1.3867741904233424 0.32925105407613353 10.335763922150699 0 0 0
79 0 1 2.1840800042392163 -0.738471468883092 9.600920656684455 0 0 0
80 0 1 1.725000018251477 -1.4332735644066874 9.22652168414689 0 0 0
81 0 1 0.7956558411353075 -1.0559879541530306 9.179163897822239 0 0 0
121 0 1 -0.2757688944175388 2.3498102896113613 9.05121594502598 0 0 0
120 0 1 -0.45157968848497476 1.54462711024809 9.605695947060601 0 0 0
119 0 1 -0.20827499718888914 2.0448612049629906 10.405106297486059 0 0 0
122 0 1 0.6108370728103348 2.1676117099225007 9.340213888623644 0 0 0
123 0 1 0.5152796421998282 1.4005455586414 8.775271386750893 0 0 0
85 0 1 1.9229398177683201 1.2639688358227987 10.829161416402066 0 0 0
116 0 1 -1.4098457309113095 1.1883551641356183 10.922332332539977 0 0 0
83 0 1 1.0900260623470033 -0.19241474903631997 10.913441666251813 0 0 0
84 0 1 1.7413076276303188 0.4737328590159348 11.316177070654689 0 0 0
82 0 1 1.0004527036500668 -0.6392037096178835 10.040272039218173 0 0 0
367 0 2 0.24885981346029282 -1.9791075909913813 9.332597775196904 0 0 0
369 0 2 1.0344123600185522 -1.6779370790141694 10.391676303052552 0 0 0
370 0 2 1.5631554564277244 -2.1164597420992437 11.054676827311765 0 0 0
392 0 2 -0.6028879577628826 -2.133809526620123 10.89970343881525 0 0 0
391 0 2 -0.3579999364790535 -1.6460162516822567 11.657411724063165 0 0 0
390 0 2 -1.3403643555305162 -1.7415300171179924 11.596216862332195 0 0 0
366 0 2 -0.40193120243610486 -1.469732497617479 9.85278469666298 0 0 0
115 0 1 -0.573461594215125 0.8006875765422078 11.042234435721605 0 0 0
114 0 1 -0.2202157703691903 -0.06412439138487276 10.850595877726356 0 0 0
113 0 1 0.2826083311939902 -0.9038759560532811 10.981364401164388 0 0 0
112 0 1 0.8262347729691479 -0.7858096793651034 11.823238613524694 0 0 0
111 0 1 1.602321300959781 -0.6966765919620288 12.40186995629172 0 0 0
371 0 2 1.2162953069895799 -2.1471085804537746 11.926006784980146 0 0 0
118 0 1 -1.126737249030913 2.3499649321421234 10.515123745603454 0 0 0
117 0 1 -1.5060026650572398 1.6077589558600687 9.956843885726247 0 0 0
88 0 1 0.051279416825328585 1.696397785252133 11.748287120115187 0 0 0
87 0 1 0.7331641790725493 1.6417780460517495 11.05408651601044 0 0 0
91 0 1 0.25729765268385524 -0.08000344299585994 12.558634653852934 0 0 0
86 0 1 1.024548933172714 0.8028372802706689 10.646047182192305 0 0 0
388 0 2 -1.3332038755279165 -1.4635901201746375 13.103126769669041 0 0 0
382 0 2 0.24664800316382085 -1.8955834281378996 14.67934857858067 0 0 0
381 0 2 1.1842138167214327 -1.9888245606392965 14.640959036427633 0 0 0
375 0 2 0.2383069702707512 -1.2047886147474625 13.59221178152384 0 0 0
374 0 2 -0.19681754248934236 -1.1975540615559193 12.742606989571954 0 0 0
389 0 2 -1.5762160286628288 -1.0471045127978522 12.255030681732562 0 0 0
387 0 2 -2.141530253514692 -1.5452678448489017 13.626553125400623 0 0 0
93 0 1 -0.9278349184378182 0.8873352068485169 12.886990369559783 0 0 0
96 0 1 -2.130199550006546 0.9477344693283298 13.89006163976839 0 0 0
110 0 1 2.231142712316664 0.006901779114246582 12.478648045970058 0 0 0
376 0 2 0.20467876836409463 -0.3822511380854667 14.08910335391275 0 0 0
377 0 2 0.7363552894450691 0.4308107524181495 14.094375783409033 0 0 0
101 0 1 -0.7268837539952167 2.190613441074573 14.17408564252287 0 0 0
372 0 2 0.8845830509113527 -1.8595960529314568 12.750623591349365 0 0 0
373 0 2 -0.04190931958157392 -2.0991568062495296 12.515393604928336 0 0 0
108 0 1 1.994364643633244 1.074712202117662 13.581179108349305 0 0 0
109 0 1 2.0997291407321255 0.9125650957949346 12.635198851096048 0 0 0
94 0 1 -1.5687823393276965 0.21090436198852125 12.544236886143217 0 0 0
95 0 1 -1.6163604020524776 0.28651689593438545 13.565686909437591 0 0 0
92 0 1 -0.03585087123265753 0.5987356603757921 13.219716698082562 0 0 0
89 0 1 0.2968040721669602 0.8192830217940607 11.753902841604482 0 0 0
100 0 1 -0.5208712803689445 1.2765924276068985 13.96105627353354 0 0 0
103 0 1 0.7983169935701454 1.942757773794834 15.05517849178739 0 0 0
90 0 1 0.8316709360358876 0.7306687946489329 12.52096243655776 0 0 0
386 0 2 -2.393852469392756 -0.653060103462345 13.64571941067537 0 0 0
385 0 2 -1.835559939310763 -0.7009865312494643 14.447802366483502 0 0 0
383 0 2 -0.7028932036537388 -1.8649814097315134 14.839509330121823 0 0 0
384 0 2 -1.0815575245645037 -1.273911570438346 14.21580041498975 0 0 0
380 0 2 1.9591702285643615 -1.604508224521435 14.380120350776853 0 0 0
98 0 1 -1.2050177374525768 1.204172278597162 15.02305714070686 0 0 0
97 0 1 -1.7813630442527046 1.6814040056993482 14.424949097285023 0 0 0
378 0 2 1.5285057040801326 -0.16506143423813102 14.283437778381296 0 0 0
379 0 2 1.8919190062782392 -0.8990422150509342 13.786177670096746 0 0 0
99 0 1 -0.2931692293486702 1.523771164107936 14.91774147832859 0 0 0
104 0 1 1.0823225250915798 1.3660905387595907 14.361033201676294 0 0 0
102 0 1 0.15343751445673448 2.396445031204225 14.448589763166288 0 0 0
105 0 1 1.8073631094112161 1.0150839214440464 14.833224723067115 0 0 0
107 0 1 2.5475654005175463 0.35515546985545576 13.89941486882845 0 0 0
106 0 1 2.4559550221279527 0.2947276271041108 14.88257694464782 0 0 0

Velocities

316 0.26782729812911865 0.4431694518994552 -0.2945558078808126
298 -0.30193136051758707 -0.9524770906081844 -0.5808507148924665
297 -0.05070566500025317 -1.6216233027689824 -0.7082881210460423
315 -0.039142283230928956 0.7569033655956052 1.3657208667995304
314 -0.3941527097659448 0.3203317029801284 -0.3361202827987452
313 -0.5874174724855079 -0.09479956778134899 1.1852119344603298
299 0.1889097405215126 0.26951994505095306 1.7718848769310107
300 -1.2842535888772053 -0.8236080727537756 1.4251848898667119
304 0.46257023603551184 -0.3701744764172263 -0.6043498974512965
305 0.8143012852724218 1.1390344640498637 0.16495161025066823
311 0.5617286073026956 0.7854745238861341 1.07401384314994
308 1.3481976752928684 -0.35154164711531455 -0.09646977053098628
307 -1.2934918810169103 0.11370540602328222 1.593023685999686
312 1.7896127113984763 0.19520230814875547 -1.99300346986444
306 0.7773443941239372 -0.19793431303343356 0.2960282967422483
318 1.7855794656513815 0.31935099986053894 1.3124855544065819
317 0.2476993156480212 1.4267962017825953 -0.11170050444618815
321 0.5206235887520134 0.4195112120558058 0.9978129541468811
293 -0.1747504602858695 -0.9632766020003384 -0.3527967894475688
296 -0.5199472561229831 0.7807096645503449 1.5199178008522392
295 0.9882897550555305 -1.4642848999019125 -0.07664600846592323
179 -0.3486843221623597 2.0773213554998766 -0.44142368846674124
319 -0.15332295005149682 -1.2025336036236105 -1.024364279571886
180 0.021969120346419617 0.08875064088785015 -1.3200440421451545
320 0.6988948418477325 0.19359007478751952 1.5871315945159277
291 0.6691815238376958 0.14958429529768896 -1.0454318094360298
292 -0.534752029397575 0.8425317996894803 2.0846862101335035
181 -1.579141019993531 -0.7527835998643101 -0.49585974400544025
301 -1.1368842751141426 -0.041831089730280616 -0.5346378700418539
302 -0.6813899749369361 -2.156821123951127 2.557321822661979
303 -1.3007683715805516 1.311298964130329 0.32731136994692167
177 0.45264371738213294 -1.9567343634495298 1.6438244345797783
178 0.46998241895449955 -0.3919012633026228 0.3795246956186629
176 -1.4298531981898792 0.8473852714146246 -1.8882564380066262
309 -1.57418185677644 2.0899239615881355 -1.3302546611534276
310 0.1694824538063104 -1.7392453373549852 2.600383129596583
168 -0.8684983377134524 -0.5782176842805558 -0.4809070014603133
323 -0.37702991680273984 0.42361663370920793 -1.2135659833242327
322 -0.1139388574299393 1.9186918823524255 0.8550553889855913
294 1.5229126736099357 0.5848036894062091 1.5661475528923807
169 0.4323105667952681 -0.7356800088898537 0.9719308553891278
171 0.4880175880649377 -0.2928159270014661 -0.23142859091613288
170 0.4920391019989989 0.609526339964187 -0.49034866458718585
182 -1.0288864492720189 0.9409838495264423 -0.04140165342132149
289 0.7092535879651671 -1.0490280361090347 1.0052262595655566
183 -1.2880396292663807 -0.08389052207826518 -1.1762385986143173
284 0.03138557276927703 -0.08198797681709664 0.4934736465212494
290 -0.45743476617173584 1.4250650766029844 0.11633110070717337
288 1.4676786982862042 0.9390277178475342 -0.6237280798050376
285 0.7749927566273859 1.0770714256911846 0.6559083057509957
175 -0.09983411943929894 -0.7420666731818474 0.0068454684734621934
174 -0.6597387469068092 0.5983019390760039 0.3390991337824105
172 0.4399551118085603 0.10369667604728733 -0.22409348685207575
173 -0.9130406740395283 0.08360558896798034 1.3014113720359761
281 -0.15472145162918416 0.6723241632794635 1.0879823361901113
282 1.465488638599544 -1.3285666404249268 -0.9587696623698246
283 1.2457436918427742 0.32444529518792864 -2.028251176054141
167 -0.6501043094159439 -0.3762948045213378 -0.2508463201832252
325 0.029141837164634032 -0.8257719982288537 -1.2689672625047308
326 -1.287212607553617 -0.6470329210675245 1.220562978606972
328 1.3525287447253684 -1.1730791582265339 -0.336387276845722
329 -0.44154883756357577 -1.431455719808069 0.8329691111071079
276 0.45561057171338964 0.27985148788521175 0.052609524342805636
166 0.9687148106346125 -1.0037193302869127 1.050387366504822
274 -0.300885020442973 -0.47118935845752397 -0.009724739137153993
275 0.19734872744861992 1.420068056131365 0.09621428266357317
324 -0.045805601933248355 -0.8488529465313287 -1.4808314398262497
327 -0.11542110695643559 0.6076406475439098 -0.7486654585650296
184 -0.3672155220481027 -0.8760529139697304 -1.3129210013754793
186 -0.6298711503523364 0.6746554705816711 -2.310981064132944
187 -2.466560790430599 0.7713411183844856 0.4431766732323746
185 0.6945746672836638 0.3215377981958246 0.544615048947928
287 -0.3873988901337066 -1.8934974814709484 -0.7497347710974106
286 0.3854688956339289 0.08061483577698052 -1.012215918632009
277 -0.5604624064587369 -0.00288134310607982 -0.09488631809656872
280 -1.2596267165967125 0.06266485282342482 0.14019276440167946
279 -0.5298414770115081 0.6946443621112713 0.9369871252210334
278 1.847931901732196 -0.01769422631842055 1.2159818130792792
188 0.7857380704642453 -0.9455799622618042 -1.2107191618771003
12 -1.8090476121274468 -1.4128641469938301 0.21640890730928874
13 0.45870097566378665 0.8562943059840704 -0.40863630756459757
330 0.3010468024519878 2.403972753263378 1.5074083940338106
165 1.7156716377022971 -0.35228860263545025 0.4844203887634515
164 0.5320440671714818 -0.3383537176977351 1.2428077757262481
331 -0.2371029644873749 2.171077726387598 -0.24322087358329506
273 -0.5185032097435534 -0.810030421746202 0.5641913237782217
272 1.476984899318108 0.18191212999758047 -1.1275657731561508
163 0.33451800395455544 0.20125634326734074 -0.10837293610222323
162 0.2317249942742773 0.28926478796343247 1.2907182927445067
161 0.21360045833826297 1.287904294744838 -0.04189282486308145
29 0.5485266224103309 0.26380037867079825 -0.01646410162235351
30 -3.0879368337074684 0.20234607507528599 1.2369824998337282
31 0.7643022543543414 1.7102881546794104 0.5323127180679043
28 0.33433230641413036 -0.9884732886227265 0.6182660703753884
160 -0.18413452555415494 1.1858692948675382 -0.6914089764585969
271 -0.6654226419591878 -0.20580980421087058 0.6999182121890938
189 0.1303308013318115 -1.960467972555793 0.49773006747459925
190 -0.26630340385056217 -0.7824768600765715 0.2743048613602914
191 0.4749523072889585 -0.07339286287148421 0.11320268405607559
159 0.5830776033993574 1.3515186890844888 0.422232773012473
15 0.21016761919883775 -0.3298941087418988 -0.5596517180464335
11 0.2137797773660834 2.230028549448885 0.021447335676802542
332 1.5044766654061807 -0.562293600425693 0.22875700923537184
10 -0.10299665599051809 0.08552258238535021 0.4985144865925495
333 0.1841487012591851 -0.6741813217907823 1.574076889628912
32 0.12373535317980622 -2.3757410528549037 1.2213884448511652
33 0.9578876594705944 1.4581851062242226 -0.41856230922888216
16 -0.2982566183947425 -1.0478188503374066 -1.4460002470403883
270 0.8444131659114237 -0.09719077355480028 -0.4438361638776213
14 -1.1702988780889922 -0.9825632364236161 -0.6194568021429165
17 -0.3344219293077516 1.9105467367468996 -0.01994697943492721
18 0.4489939176073199 -0.13995746992533964 -1.0430358709388774
25 -0.4958216501292059 0.9405156355824813 1.3927588086882823
23 -0.6105576508190557 -0.19241465343162026 0.3670091759730074
22 1.0760361415251576 0.4683535324759209 0.04310573433910153
27 1.6520372674324624 1.2717173673665507 1.169699375818456
26 -1.6019505496251452 1.318959017024876 1.5201992819887078
34 -0.8815379213911578 -0.19759062928370255 -0.34089959457572816
35 -1.1313246808403832 -2.1714579460123113 0.6982348368574096
269 0.8292853462734011 0.5287321616787962 1.342858672141279
158 -0.18727470763301152 1.313833320207009 -0.028491378974392287
193 -0.8831923588569371 -0.4203728284722673 -0.3168163804758978
192 1.9061502921628646 1.0447806494849412 1.7935683997367977
156 -0.19156602943041984 -0.3764954081669032 0.8214736423824411
157 -0.6420283591531981 0.11634876686574834 0.696816347431723
7 -0.11635013931362374 0.7141558140095636 -1.1407902182544662
8 1.109788585119142 -0.24827858599126623 -0.13362040349576665
6 1.0316277364716917 1.216593888050098 0.19464079329184758
9 -0.4002610410992898 -1.4456058664246338 1.4638707852870465
335 0.5226257956617928 1.388732599753249 -0.43017088073052157
334 -0.27356875760781757 -1.4475324914966128 0.6682295520126468
21 -0.270652152445085 -0.03414344828441343 -1.8453139683906241
19 0.8712404484741594 -0.6954833140344319 -1.0866790886888316
20 0.8325914022498127 -0.5292830057990529 1.1132239070902956
24 -0.32795337132284363 0.19849620262460554 0.25734203795826177
153 -0.6719401408939625 -0.4493689742110762 1.4045573831952216
36 1.1526072864454773 -1.4304026797107547 -1.3902514208964547
38 0.1763648823193704 1.6074633562944167 0.1339465770898461
37 1.178010194002422 -0.1226951883597748 1.3379134312923435
268 -0.7788727821468402 -0.06733086029296105 0.2508630320062117
267 -0.7526283327157197 -1.6059033773875633 -0.08139044772583168
155 -0.10881165256528404 -0.8929947566620399 -0.013786692494456992
154 0.48098669519727816 -1.383929090916221 -0.6698090830160518
195 -1.1052280477047922 -2.064014550929752 1.1037079001368018
194 -0.25642633746402677 -0.5013055042613271 -1.0799641034040042
196 -1.0587795218540097 0.5932814653889471 0.8005648253533358
197 -0.13089032820603516 0.08571975130827049 1.1461560198254013
336 -0.3584485822510564 0.9058201710856749 -2.07749731713721
55 -0.6467456704931809 -0.5761671323912365 1.1878119891426577
54 0.42813909563053476 0.4130256509818275 0.8661977368237032
39 1.2351965993999952 1.3122157173311424 -0.3949353372373793
40 0.3514238369042625 -0.3658531754012368 -0.9176199277885667
5 2.5389259343654738 -0.5732599096539543 -0.8970464477401953
4 0.29968426583884156 -0.49052239527873176 0.4052119238052582
3 0.7525680330571666 1.7609151415868962 -0.7642469227563373
199 -0.04067861091451523 -0.017204134310165806 -1.0459467360197945
42 -0.5503510391694532 1.8574611789743134 -0.03262939330074363
198 -1.0639923072988549 0.6477456370590152 -0.9488548307395873
266 0.6972791477972722 1.2783581238631752 0.7730664525328892
264 -0.4065293456915891 -0.16455809646987435 -0.7277257772269379
265 -1.328244187816811 -0.5000655881087077 1.1685816551265862
152 -0.43354670030311704 -0.15864871925209745 -0.38481411232481666
150 0.6923934783128348 -0.5614215865552928 -1.1146176250005264
151 1.3978668964264545 -1.1809971502256422 -0.38023029073687714
149 0.2040802487983979 1.1005148981932962 -0.2079689538603301
200 -1.2972818285507675 -1.968348465890153 -0.7595736666408883
57 -0.07975265548564668 -0.6469880856133718 -0.29896121827152156
58 0.92047551945276 -0.6824379767164201 0.28863234965218393
337 0.07346397586327355 1.4874159662152393 -1.1435460565641682
53 0.6644676693492679 0.22461862109301786 0.15464887905275362
52 1.3837145786744725 -0.17000095739691984 -1.006119626273798
56 -0.07082604860471255 -1.8265601529267257 1.044354933993227
339 -0.1715511027302153 0.8097926885450736 -0.5424962297412166
41 1.060647705607995 0.4685952769016207 2.154250006793206
338 -0.5494458157303166 0.1306034902657212 -0.8002638266853455
263 -0.8178399083427641 0.1754400720058756 -1.0390057104210786
262 1.0456945642574837 1.4243505905244425 -1.563659243393678
261 -0.14128316240825534 1.5276521891253478 -0.11005703539066873
260 1.8559183928493534 0.009731525189175048 -0.5499115625096935
1 0.2471778659078322 0.6743679163837971 2.5095458465527645
2 1.2261449692307997 0.7459549174542035 -1.0829220579203482
50 -2.4452876504118404 1.1407285051179068 0.5640667051372137
51 1.1708129222703498 -0.3284622473278818 -0.3884072450020574
48 1.1956256507416059 -0.8646583205206606 0.39767883861572856
43 -1.0225930688024192 0.8588765368994797 -0.26706664448737943
44 -2.848922932175431 0.9883909937583661 -1.2715101372433109
148 0.05190977360878869 -1.935908280709654 0.9705554449523464
147 0.07732664771895778 0.987414257651832 -0.6610668805206555
46 -0.1389608365262196 0.6519489359458296 0.248604101543883
47 1.8013087139532278 0.08316741407970969 1.57600444107737
45 0.18045485303777392 0.5599865801972943 -0.4266721979193745
59 -0.479407920513304 1.4915912145060362 0.29274327248121873
60 -0.7938313120286041 1.8816315645975041 0.867402086224453
341 0.6175011593236558 -0.5077627042320293 -0.10493705210555535
211 2.054965586534786 -0.624393198053475 1.8589172838739185
340 -1.2163937285870365 -0.5211610916074938 0.4386773004754658
342 1.2708711992512238 0.7192566514305326 1.1673016725734195
258 0.8356289210141274 0.68814127288924 0.23953139252979985
257 -0.8078242223776241 0.8971485444326059 -0.11043468335029524
259 -0.2728927044561579 -0.5995274431826013 -1.3126186460595926
256 -0.9848677276631735 -0.32335675090142185 -0.6131909873547493
49 0.35702918354656343 0.19804758599076183 1.8923080900194453
144 0.070209337146816 0.023174680010461184 -0.11962359762138644
140 0.01840453372747068 -0.6509911311517728 -0.3302282382862769
141 -0.5165659620185715 1.574357034285163 0.6346076750084285
139 0.8250265410011832 0.6849761890621395 -1.220124337960857
142 0.8153269375863944 1.0805705537840116 -2.122735147246917
343 -0.23074496384408882 -0.7124621558609735 1.4821691717291203
146 -1.4711744361591137 0.19804744139267635 -0.40416807305608815
145 -1.5510639200503105 0.31001807902096057 1.0997702857817448
213 0.32086690917689464 1.3209897421078736 -0.12734990105926156
212 1.9715662151824944 0.27999042680882563 -0.6699808267361161
210 0.6256909011987366 -1.0545443616658792 -0.11127206920517344
208 0.7578363434543784 1.9223256233663977 1.8226597005360952
209 0.1423129013418276 -0.7304347645543707 -1.0601410445608024
217 -1.2594932876359395 -0.031342587632964464 -0.5371709384404537
214 -0.47310204347015183 0.003674909458331942 -0.08475412162665907
215 0.04446144798098549 0.3166788123164497 -0.2133374991076466
216 0.019487514588736862 -0.2984512567640092 -0.9542283132745955
254 0.4711178972583417 -0.3181772297536203 -0.8981124310429742
63 -0.024678944201847422 -0.8697138673327618 -0.37290734677676535
255 1.1673006533910422 0.14857972494725932 -0.8901502231463777
61 0.21105967324139216 0.3395708750469273 -0.6308421573183919
344 -1.5788274103416844 -0.32023852131191355 0.5421700285477226
62 0.49531682847031233 -0.3979334747236786 -0.6758042330356488
345 1.257847868632588 0.06791488749052554 -0.917189451473898
138 0.5833036259255577 -0.9673584127979586 0.6917632525059376
137 -0.13515746847069 -0.01853851897382064 -0.4829482512657627
64 1.5506148439772807 1.7845493095726144 0.44715572466677894
135 -0.3773473306037938 1.4519292048118302 1.3293710478448209
65 -0.9688461341897283 1.5505992513669806 -0.10332874625149191
66 1.3397179331727052 -0.42516489088371573 -1.128336300435379
143 -1.6811246436727167 0.002762585669219844 2.8846808210649555
205 -0.9210726077866536 -0.2796791877183372 -1.1192083949340705
206 -0.11501242705782141 0.6910913600530452 -0.4818849991224872
207 0.28076468556721706 0.1401111263379816 0.30737918207230347
218 1.5873242110461918 0.9195763014289343 0.0986240622060488
348 1.4554541493340363 -0.8291744156547196 0.5923614552502922
228 -0.11726771277487634 1.4385217752843815 0.3417902877140217
219 -1.6834493285796743 1.1482284798906124 0.10135964822835858
347 -0.7872483901224776 0.05745627464951736 1.3492446519790562
252 0.19986478456117843 -2.1321383081023875 1.7671075215055931
253 0.2645558736078535 1.4041827632955404 0.3655194991821418
251 1.5806195497630948 -0.0599990084336949 -0.252088383025132
346 0.7611951504833779 1.2839556585742662 -0.23129421447339768
134 0.19472418646837905 -0.5975849886899697 0.4930957356722802
133 -0.09862163648446204 0.30451949000890155 0.2256996039924702
227 -0.43177738453764763 -0.08531938973321293 -0.6235124450566376
136 -0.7034957812139424 0.43798496235053863 -1.2380428009842321
220 0.2812761848395116 0.2617145604931436 0.9025632309248582
221 -0.9930207766241903 -2.246950395827637 0.4692481346286643
222 -0.2657886819100439 -1.4751590118794884 1.5274352942750187
223 0.652680193993193 0.06759266622176195 1.0031411829191021
67 1.9606718367498241 0.7039032494426665 0.7163027314846253
68 1.775703477628854 -0.9702444504836191 -0.26039962352269097
204 1.1583352147931927 0.4002296981367884 1.2083828992911827
349 -0.35067748978248303 -0.0792112890393791 1.6066649120304832
230 -0.3775772452075169 1.5225006316246086 -0.45442482897345293
229 -0.03505870692051302 0.14614647591847066 0.02682506279427513
400 -0.6748438298399869 0.44299366897307757 0.7591753471235215
231 -0.4677575001999411 -0.16999218268329816 0.08775469725755827
203 1.0027045516742743 0.6522813217657537 0.635318598931452
202 0.26808093168256913 0.7614281321675553 -1.976241291398422
201 1.0415383229898154 0.23439751596056504 -0.43644515320349697
250 -1.4627959073290193 -0.5447953839481698 1.2763736634453242
226 0.715873860409905 0.3228005345725141 0.29979023734419796
350 -0.5903271521538901 -1.2472652355454483 1.077691103274533
351 -0.9208181136147862 0.6146922535011337 -0.2697826261908313
224 -1.1130874873365175 0.9113694436940389 -0.16407656415186855
225 0.6326734492303406 -0.7531060475511433 0.8609930313750015
249 0.5933695544645934 -1.6978636743211164 2.040623873856
130 0.6860711886199177 -0.8714369201087624 -1.7032407454929908
248 -0.9257304929582885 1.6237921438877445 -0.9291388566610854
132 -1.3909794699439209 -0.5963873768059795 -0.3535174962011258
131 -0.49964580277516285 -1.162085451379716 0.6424559073184785
69 0.8650126201722881 -0.41284995184043305 -0.2176414746281618
70 0.7233749579453483 -0.6091853930280198 -1.4115184304558328
71 0.7604047756437573 0.3440661484911013 0.27333197593014885
398 0.5427197639817707 -1.0048755409278285 0.11248937370659023
399 -1.4768314345953366 -1.191294413068789 0.12288738733666008
232 2.6039283086719855 0.4946084325575003 0.5106095428104335
233 0.8007289672151957 0.36824387245588036 0.46046428110698423
357 0.8717872124066016 1.9807475099774636 -0.9982337100020744
355 0.40116005304644164 0.45797516534738364 -1.101583856746283
356 -0.3700161274612195 1.6218267310690222 -0.8332869941239008
358 -1.4127835880576836 0.22015297303894824 0.00954833296530376
352 -0.41470074640313076 -0.9326523575337569 0.39818572165518307
353 0.16026120359442125 1.6781453142606026 0.1559923066921552
354 -0.03831115677828066 -0.6949174337086443 -1.8601621916771331
74 -0.8240705476766006 -0.1948363750723469 0.295867906512328
75 -1.176605952247247 -0.5789117064831488 0.8989578341220477
247 -0.7412958108001234 -0.5158116880749718 -1.623634183597403
129 -0.9088680209859351 -0.03752142694120636 0.5978861509740535
246 -1.6245693135735693 -1.2454364599604681 -1.2370026403701249
128 1.0118931040243546 2.1998209745197297 0.13056259310134385
245 -1.1079838672003477 -0.36085192633254565 1.3357962829460706
72 -0.4404299826189999 0.10165772340202725 0.5205276390348698
73 -0.9811321011644032 0.14718762542666577 0.3034099390903059
396 0.5616193058089698 -1.858472532918408 0.5875559963683044
397 -0.04809913987198777 0.9332328459293295 0.408103863552708
234 0.49346757450964224 0.5185213712520145 -1.939621522581126
236 -0.4985208745157069 1.0608444643581314 0.9572261000837543
237 -0.14606510437660047 0.5103602661403386 1.2937353476832036
235 1.8627314459440336 0.2529244376358516 -1.4501219968041006
359 -0.842228078172909 -0.2140523011687238 -0.8516055353851938
360 0.5846537469182133 1.1897707941180025 -0.7923551983289914
241 0.8701805322251768 -1.2036396559743832 0.717042666354332
243 -0.527686814705989 -0.6687196185042618 1.2372552114824888
239 0.785111391419313 0.6048219895545746 -0.21378088774670803
240 0.6777873429086089 -0.3159239080231757 2.2271513720245624
242 -0.3483075089305268 1.3671993997966203 1.1464413344318556
76 0.13968829735502605 -0.06849806316683182 -0.7012947365240235
77 1.4392668397164334 1.322375825005089 0.5412101499757582
78 0.2374802832682324 -1.6188051350890178 1.538999422173765
244 -0.6820298462046671 0.8520433170293388 -0.22572114263829784
127 0.6611954685634978 1.1345282578936864 0.13174131971021116
126 -1.235922209344737 0.5333609451937958 1.5243627922783258
125 -1.6700306538203398 -1.1080431925317986 -0.11266510808472377
124 -0.6114464776380417 1.4993816458688278 0.8448369995353617
394 -0.19970882439013832 -0.6356289139634813 0.07963781226944827
393 -0.7878891208581933 1.6058425079458716 1.3385100281657638
365 0.3458741245333835 -0.9649979659211565 0.9079610708863878
238 0.6087639879848367 1.8844864887970687 -0.059423174586796315
368 -0.3141798760553698 -0.5954202755962869 -0.19339788362821692
395 -0.2512441788301973 -0.2720494512678939 0.10438845109760903
362 0.12147127897511656 -0.2863122278536082 -1.3392978360346202
361 -1.7571439670609044 -0.8442277816326219 0.15271923887030175
364 0.3546801227495409 -0.37027589075546186 -0.5891288548456961
363 1.1177928173015588 -0.9159307174949256 0.19157496778687494
79 0.9317893708140963 0.4482921290811387 1.7103914348457971
80 1.6647363829484885 0.14344015758871512 -0.2944786717661092
81 -1.1312538263978587 -1.3454093281861637 0.05477065896494161
121 -1.4183742528509522 0.019165989783057773 0.13393121869873226
120 -0.04917974234905003 -0.9663490501909591 0.45605977283574706
119 0.4039495445222974 0.2625303757569175 1.3450524572549698
122 -0.3531336364337412 -0.22768199486764767 0.09753655050972294
123 -1.8890916638188977 -1.0828371862341066 -1.6428094701492995
85 1.756375338464701 0.645523136666869 -0.24999359514304476
116 0.38183517892964214 0.8062658882756504 0.2221690036238071
83 0.7840826355519281 -0.11223352838027545 -0.5371645123633824
84 -0.6275015656381124 0.024281256281333555 -2.1289551442072834
82 1.6228445914990324 0.42529735924781725 1.484643377796707
367 -0.5885718889799764 0.9250896719924796 -0.8893080691015248
369 -0.7930865693444218 1.169293889148567 -1.414991409291144
370 -1.2938855119949542 -0.4030175381431651 -0.719931861932452
392 -0.3407106668846644 -0.3681941578296136 0.10624361464772625
391 0.9329113509292322 0.40540972443814505 -0.04215575555190477
390 -1.3319415771716578 -1.213335823330446 -1.0599994560880213
366 -0.5788709172057396 -0.588723603525802 -1.2514558299188352
115 0.9301376775279585 0.32737203774093765 -0.38327534387751977
114 1.4804733434627197 -0.9711430296034377 -1.5487328107239229
113 -0.6161627291376194 0.028636908117839713 0.8265456315702435
112 -0.16573475538797489 -1.043984143869629 -1.2709950412060944
111 1.480191984983751 1.1174339112908778 -0.17938274290579304
371 0.609326107836553 -0.3570281023483757 -0.05403039392040361
118 -0.967383738486715 0.19164875622856592 0.954321335862025
117 -0.25939550920216387 0.0010250067929755413 0.6081637479168087
88 0.3197861544293093 0.41998532940306477 0.35252687255687476
87 0.6045640006171672 1.5744995692811683 -0.47599793987209926
91 0.0483707260468389 -0.34577661520137126 -0.8653045304699508
86 1.211114616241229 0.03828198305203692 -0.17640061623913061
388 0.3556143924529182 1.7483474710748375 -0.07391949728521312
382 -1.3043876167622805 -0.7104184253337186 -1.2914423768116823
381 0.38891443316896834 -1.2215129683229988 -0.14013156389788922
375 -2.018776817444939 1.0027795444956027 -2.316831061902655
374 -1.4163393347782995 0.6726753311934535 -1.0969693655176456
389 -0.35027952344411467 0.1345680200313567 -1.4094918646413406
387 0.5788947124939736 -2.1705568879272 0.061889606880610015
93 -0.5809840150855916 0.7797367865006293 -1.607034158824485
96 -0.007414107160168201 0.4378055738188737 -1.084095118460994
110 0.02576418157685459 0.9079815988123829 -1.6291747631792026
376 -0.6259325523527365 1.2626837122030325 0.30807583189434956
377 -1.1093741987567203 0.19403981971285544 -1.0323031889571936
101 -1.9115895170865966 0.9074896530584482 -0.10301656925850598
372 0.12553930048023268 1.4319437527539727 1.0295385390268723
373 0.5172601570757458 1.6575213649641192 0.5842495219579424
108 -0.3495813039114209 -0.8297697511216279 0.7783515435318809
109 -0.7706101918810202 -1.0558778720521622 -0.8486429550721551
94 0.6658739882178051 -0.30867090803730546 -2.2567153223612584
95 0.9267068597538629 -1.2955036226649745 0.20550684514811207
92 1.3260688538633676 -1.2214311459882081 1.0371061974817273
89 0.6729861362039173 -1.2248514334929799 -0.3575622586946546
100 0.7827772306941841 -0.0722094707304339 -1.3851803811621302
103 -0.8266326723848653 0.4488235189651866 1.009479758761948
90 -1.1314472340587478 -1.21938051644231 -0.7065642076458252
386 -1.7819413557125892 -1.4896885667992545 0.484820538293001
385 -0.29484912638265504 -0.24134811606327622 -0.34409027322670277
383 0.8559645270437456 0.7570913846003593 0.23732530090251153
384 -2.177649985450946 -1.7515296503163282 1.5205252433388199
380 0.07983514114974341 1.4520434037013539 -0.9561386166656605
98 0.993797818719592 -0.8882537138139323 0.9380800900037646
97 -0.3841323792759774 0.22823689813112236 0.28123165336035155
378 1.6627700992791088 -0.5737838214762556 0.8746133731896509
379 2.2561054451414018 -0.49886223387204476 0.6999518318546101
99 0.06869849792288968 -0.449555703200787 0.3672851589682293
104 -0.829376054312051 0.6362262788564639 1.5405151716089374
102 0.6133129074733514 0.5855551782532181 -0.4079578842612175
105 -0.1531001684539739 -0.6914616915330055 1.4788555820917673
107 -0.08315979432441417 0.003915158557125209 -1.7439732017783018
106 0.928389179518701 -1.0924726817322794 -0.34661018592589554

Bonds

1 1 316 317
2 1 298 299
3 1 297 298
4 1 315 316
5 1 314 315
6 1 313 314
7 1 299 300
8 1 300 301
9 1 304 305
10 1 305 306
11 1 311 312
12 1 308 309
13 1 307 308
14 1 312 313
15 1 306 307
16 1 318 319
17 1 317 318
18 1 321 322
19 1 293 294
20 1 296 297
21 1 295 296
22 1 179 180
23 1 319 320
24 1 180 181
25 1 320 321
26 1 291 292
27 1 292 293
28 1 181 182
29 1 301 302
30 1 302 303
31 1 303 304
32 1 177 178
33 1 178 179
34 1 176 177
35 1 309 310
36 1 310 311
37 1 168 169
38 1 323 324
39 1 322 323
40 1 294 295
41 1 169 170
42 1 171 172
43 1 170 171
44 1 182 183
45 1 289 290
46 1 183 184
47 1 284 285
48 1 290 291
49 1 288 289
50 1 285 286
51 1 175 176
52 1 174 175
53 1 172 173
54 1 173 174
55 1 281 282
56 1 282 283
57 1 283 284
58 1 167 168
59 1 325 326
60 1 326 327
61 1 328 329
62 1 329 330
63 1 276 277
64 1 166 167
65 1 274 275
66 1 275 276
67 1 324 325
68 1 327 328
69 1 184 185
70 1 186 187
71 1 187 188
72 1 185 186
73 1 287 288
74 1 286 287
75 1 277 278
76 1 280 281
77 1 279 280
78 1 278 279
79 1 188 189
80 1 12 13
81 1 13 14
82 1 330 331
83 1 165 166
84 1 164 165
85 1 331 332
86 1 273 274
87 1 272 273
88 1 163 164
89 1 162 163
90 1 161 162
91 1 29 30
92 1 30 31
93 1 31 32
94 1 28 29
95 1 160 161
96 1 271 272
97 1 189 190
98 1 190 191
99 1 191 192
100 1 159 160
101 1 15 16
102 1 11 12
103 1 332 333
104 1 10 11
105 1 333 334
106 1 32 33
107 1 33 34
108 1 16 17
109 1 270 271
110 1 14 15
111 1 17 18
112 1 18 19
113 1 25 26
114 1 23 24
115 1 22 23
116 1 27 28
117 1 26 27
118 1 34 35
119 1 35 36
120 1 269 270
121 1 158 159
122 1 193 194
123 1 192 193
124 1 156 157
125 1 157 158
126 1 7 8
127 1 8 9
128 1 6 7
129 1 9 10
130 1 335 336
131 1 334 335
132 1 21 22
133 1 19 20
134 1 20 21
135 1 24 25
136 1 153 154
137 1 36 37
138 1 38 39
139 1 37 38
140 1 268 269
141 1 267 268
142 1 155 156
143 1 154 155
144 1 195 196
145 1 194 195
146 1 196 197
147 1 197 198
148 1 336 337
149 1 55 56
150 1 54 55
151 1 39 40
152 1 40 41
153 1 5 6
154 1 4 5
155 1 3 4
156 1 199 200
157 1 42 43
158 1 198 199
159 1 266 267
160 1 264 265
161 1 265 266
162 1 152 153
163 1 150 151
164 1 151 152
165 1 151 200
166 1 149 150
167 1 200 1
168 1 57 58
169 1 58 59
170 1 337 338
171 1 53 54
172 1 52 53
173 1 56 57
174 1 339 340
175 1 41 42
176 1 338 339
177 1 263 264
178 1 262 263
179 1 261 262
180 1 260 261
181 1 1 2
182 1 1 50
183 1 2 3
184 1 50 51
185 1 51 52
186 1 48 49
187 1 43 44
188 1 44 45
189 1 148 149
190 1 147 148
191 1 46 47
192 1 47 48
193 1 45 46
194 1 59 60
195 1 60 61
196 1 341 342
197 1 211 212
198 1 340 341
199 1 342 343
200 1 258 259
201 1 257 258
202 1 259 260
203 1 256 257
204 1 49 50
205 1 144 145
206 1 140 141
207 1 141 142
208 1 139 140
209 1 142 143
210 1 343 344
211 1 146 147
212 1 145 146
213 1 213 214
214 1 212 213
215 1 210 211
216 1 208 209
217 1 209 210
218 1 217 218
219 1 214 215
220 1 215 216
221 1 216 217
222 1 254 255
223 1 63 64
224 1 255 256
225 1 61 62
226 1 344 345
227 1 62 63
228 1 345 346
229 1 138 139
230 1 137 138
231 1 64 65
232 1 135 136
233 1 65 66
234 1 66 67
235 1 143 144
236 1 205 206
237 1 206 207
238 1 207 208
239 1 218 219
240 1 348 349
241 1 228 229
242 1 219 220
243 1 347 348
244 1 252 253
245 1 253 254
246 1 251 252
247 1 346 347
248 1 134 135
249 1 133 134
250 1 227 228
251 1 136 137
252 1 220 221
253 1 221 222
254 1 222 223
255 1 223 224
256 1 67 68
257 1 68 69
258 1 204 205
259 1 349 350
260 1 230 231
261 1 229 230
262 1 400 201
263 1 231 232
264 1 203 204
265 1 202 203
266 1 201 202
267 1 201 250
268 1 250 251
269 1 226 227
270 1 350 351
271 1 351 352
272 1 351 400
273 1 224 225
274 1 225 226
275 1 249 250
276 1 130 131
277 1 248 249
278 1 132 133
279 1 131 132
280 1 69 70
281 1 70 71
282 1 71 72
283 1 398 399
284 1 399 400
285 1 232 233
286 1 233 234
287 1 357 358
288 1 355 356
289 1 356 357
290 1 358 359
291 1 352 353
292 1 353 354
293 1 354 355
294 1 74 75
295 1 75 76
296 1 247 248
297 1 129 130
298 1 246 247
299 1 128 129
300 1 245 246
301 1 72 73
302 1 73 74
303 1 396 397
304 1 397 398
305 1 234 235
306 1 236 237
307 1 237 238
308 1 235 236
309 1 359 360
310 1 360 361
311 1 241 242
312 1 243 244
313 1 239 240
314 1 240 241
315 1 242 243
316 1 76 77
317 1 77 78
318 1 78 79
319 1 244 245
320 1 127 128
321 1 126 127
322 1 125 126
323 1 124 125
324 1 394 395
325 1 393 394
326 1 365 366
327 1 238 239
328 1 368 369
329 1 395 396
330 1 362 363
331 1 361 362
332 1 364 365
333 1 363 364
334 1 79 80
335 1 80 81
336 1 81 82
337 1 121 122
338 1 120 121
339 1 119 120
340 1 122 123
341 1 123 124
342 1 85 86
343 1 116 117
344 1 83 84
345 1 84 85
346 1 82 83
347 1 367 368
348 1 369 370
349 1 370 371
350 1 392 393
351 1 391 392
352 1 390 391
353 1 366 367
354 1 115 116
355 1 114 115
356 1 113 114
357 1 112 113
358 1 111 112
359 1 371 372
360 1 118 119
361 1 117 118
362 1 88 89
363 1 87 88
364 1 91 92
365 1 86 87
366 1 388 389
367 1 382 383
368 1 381 382
369 1 375 376
370 1 374 375
371 1 389 390
372 1 387 388
373 1 93 94
374 1 96 97
375 1 110 111
376 1 376 377
377 1 377 378
378 1 101 102
379 1 372 373
380 1 373 374
381 1 108 109
382 1 109 110
383 1 94 95
384 1 95 96
385 1 92 93
386 1 89 90
387 1 100 101
388 1 103 104
389 1 90 91
390 1 386 387
391 1 385 386
392 1 383 384
393 1 384 385
394 1 380 381
395 1 98 99
396 1 97 98
397 1 378 379
398 1 379 380
399 1 99 100
400 1 104 105
401 1 102 103
402 1 105 106
403 1 107 108
404 1 106 107
