LAMMPS (29 Sep 2021 - Update 2)
OMP_NUM_THREADS environment is not set. Defaulting to 1 thread. (src/comm.cpp:98)
  using 1 OpenMP thread(s) per MPI task
#####################################################################################
# LAMMPS Script to perform Langevin (faster) of two polymers in a mixed state contained in a big box to see if they are concatenated or not.
# If the two polymers are not concatenated, then they should drift apart to different parts of the box given sufficient time.
# This version implements FENE bonds in the MC and Langevin phases of the simulation.
#####################################################################################

################################################################################################################################################
                                                    #    Monte Carlo Random Initialization
# slower than Langevin, but using MC so that the the initial configuration relaxes to a state that does not blow up
################################################################################################################################################

###################################################################################################
# Boundaries and units  (use LJ units and periodic boundaries)

units lj                 # use lennard-jones (i.e. dimensionless) units
boundary f f f           # all boundaries are non-periodic and fixed
processors * * *
###################################################################################################


###################################################################################################
# Global Variables:
variable sigma equal 1
variable cutoff equal ${sigma}*2^(1/6)
variable cutoff equal 1*2^(1/6)
# variable numberOfMonomers equal 100
# variable halfLength equal ${numberOfMonomers}/2
variable totalMonomers equal 2*${numberOfMonomers}
variable totalMonomers equal 2*200
variable firstMonomerSecondRing equal ${numberOfMonomers}+1
variable firstMonomerSecondRing equal 200+1

# variable seed equal 385788725
# variables to set the dimensions:
variable cubeLength equal 100 # centre at origin
variable halfLength equal ${cubeLength}/2
variable halfLength equal 100/2
###################################################################################################


###################################################################################################
# Neighbour List

# Parameters: skin = extra distance beyond force cutoff
neighbor 2 bin
# neigh_modify every 10 delay 0 check yes # default settings
comm_modify mode single cutoff 3.5
###################################################################################################


###################################################################################################
# Setting up the regions

# the cuboid simulation box
region cuboid block -${halfLength} ${halfLength} -${halfLength} ${halfLength} -${halfLength} ${halfLength} # centred at the origin
region cuboid block -50 ${halfLength} -${halfLength} ${halfLength} -${halfLength} ${halfLength} 
region cuboid block -50 50 -${halfLength} ${halfLength} -${halfLength} ${halfLength} 
region cuboid block -50 50 -50 ${halfLength} -${halfLength} ${halfLength} 
region cuboid block -50 50 -50 50 -${halfLength} ${halfLength} 
region cuboid block -50 50 -50 50 -50 ${halfLength} 
region cuboid block -50 50 -50 50 -50 50 
###################################################################################################


###################################################################################################
# Setting up simulation box and reading atom positions

atom_style angle          # atoms with bonds

# creating the simulation box in shape of the region: 1 atomype, 1 bond type, 2 bonds per atoms
create_box 2 cuboid bond/types 1 extra/bond/per/atom 4
Created orthogonal box = (-50.000000 -50.000000 -50.000000) to (50.000000 50.000000 50.000000)
  1 by 1 by 1 MPI processor grid
# appending atoms to the simulation box
read_data initial_configuration.txt group all add append shift 0 0 0 # -${half_cyl_length} # for a cylinder not centred at the origin
Reading data file ...
  orthogonal box = (-50.000000 -50.000000 -50.000000) to (50.000000 50.000000 50.000000)
  1 by 1 by 1 MPI processor grid
  reading atoms ...
  400 atoms
  reading velocities ...
  400 velocities
  scanning bonds ...
  2 = max bonds/atom
  reading bonds ...
  404 bonds
Finding 1-2 1-3 1-4 neighbors ...
  special bond factors lj:    0        0        0       
  special bond factors coul:  0        0        0       
     3 = max # of 1-2 neighbors
     5 = max # of 1-3 neighbors
    11 = max # of 1-4 neighbors
    14 = max # of special neighbors
  special bonds CPU = 0.001 seconds
  read_data CPU = 0.009 seconds
# assigning mass to the atoms:
mass * 1

# Balancing the load on the processors:
# balance thresh shift dimstr Niter stopthresh
balance 2.0 shift z 50 1.2
Balancing ...
WARNING: Bonds are defined but no bond style is set (src/force.cpp:191)
WARNING: Likewise 1-2 special neighbor interactions != 1.0 (src/force.cpp:193)
###################################################################################################


###################################################################################################
# Define Group:
group 1 id 1:${numberOfMonomers}
group 1 id 1:200
200 atoms in group 1
group 2 id ${firstMonomerSecondRing}:${totalMonomers}
group 2 id 201:${totalMonomers}
group 2 id 201:400
200 atoms in group 2
###################################################################################################


###################################################################################################
# Set up interactions - start with just harmonic bonds

## Between bonded atoms
# bond_style   harmonic
# For style harmonic, specify:
#   * bond type
#   * K (energy/distance^2)
#   * R0 (distance)
# bond_coeff   1   500.0   1

bond_style   fene
# For style fene, specify:
#   * bond type
#   * K (energy/distance^2);
#   * R0 (maximum distance)
#   * epsilon (energy)
#   * sigma (distance)
variable max_distance equal 1.5*${sigma}
variable max_distance equal 1.5*1
bond_coeff   1   30.0   ${max_distance} 1 ${sigma}
bond_coeff   1   30.0   1.5 1 ${sigma}
bond_coeff   1   30.0   1.5 1 1

## Between non-bonded atoms
pair_style      lj/cut ${cutoff}
pair_style      lj/cut 1.12246204830937
# pair_modify shift yes        # option to ensure energy is calculated correctly; for WCA potential
#  pair_coeff for LJ, specify 4:
#    * atom type interacting with
#    * atom type
#    * energy; epsilon
#    * mean diameter of the two atom types; sigma
#    * cutoff
pair_coeff      * * 1.0 ${sigma} ${cutoff}
pair_coeff      * * 1.0 1 ${cutoff}
pair_coeff      * * 1.0 1 1.12246204830937
pair_modify shift yes # useful to shift the LJ potential so that there is no attraction

# special bonds: 1-2, 1-3, 1-4 interactions
special_bonds   lj 1.0 1.0 1.0
Finding 1-2 1-3 1-4 neighbors ...
  special bond factors lj:    1        1        1       
  special bond factors coul:  0        0        0       
     3 = max # of 1-2 neighbors
     5 = max # of 1-3 neighbors
    11 = max # of 1-4 neighbors
    14 = max # of special neighbors
  special bonds CPU = 0.001 seconds
###################################################################################################


###################################################################################################
# Set up fixes and integrator

# fix for performing atomic off lattice Monte Carlo:
# - group ID: applies the fix to the atoms in the group
# following options after gcmc:
# - N: number of step interval to apply fix
# - X: number of grand canonical exchanges
# - M: average number of MC moves attempted
# - type: atom type to be inserted in GC exchanges
# - seed: random number generator seed
# - T: temperature of GC reservoir
# - mu: chemical potential of GC reservoir
# - displace: max MC displacement
print "Cutoff is: ${cutoff}"
Cutoff is: 1.12246204830937
print "Seed is: ${seed}"
Seed is: 357648192
# Setting up separate Monte Carlo fixes for the two polymers independent of one another:

# counting number of atoms in the group:
# compute count move_atoms count atom # returns array of counts for each atom type in the group
variable total equal ${totalMonomers}
variable total equal 400
print "Total moving atoms: ${total}"
Total moving atoms: 400
# move_atoms has 398 atoms
fix mc all gcmc	1 0 ${total} 1 ${seed} 1 0 0.1 full_energy region cuboid # no other integrator needed
fix mc all gcmc	1 0 400 1 ${seed} 1 0 0.1 full_energy region cuboid 
fix mc all gcmc	1 0 400 1 357648192 1 0 0.1 full_energy region cuboid 
# fix mc2 2 gcmc	1 0 200 2  ${seed} 1 0 0.1 full_energy region half_cyl_1 # no other integrator needed
###################################################################################################


###################################################################################################
# Dump positions of atoms

dump visual all custom 100 MC_visual.dump id type x y z # for visualization

# dump vis 1 custom 10000 Arc0.dump id type x y z # positions of type 1 atoms for analysis
# every 1000 time steps, each atom's id, type, x,y,z coords and x,y,z image flags are output.
# image flags count how many times each atom has moved through a periodic boundary
#
#Dumping images taken every 100 timesteps
# dump imageDump1 all image 10 images/image*.jpg type type

# dumping atom positions:
# dump position all custom 100 positions.dump id type x y z
# dump position1 1 custom 100 positions1.dump id type x y z
# dump position2 2 custom 100 positions2.dump id type x y z
###################################################################################################

###################################################################################################
# Output thermodynamic info  (temperature, energy, pressure, etc.)
thermo 100
thermo_style   custom   step  temp  epair  emol etotal  press  vol
###################################################################################################


###################################################################################################
# Output thermodynamic info to file
# variable time equal step
# variable mytemp equal temp
# variable myetot equal etotal
# fix mythermofile all print 100 "${time} ${myetot}" file thermo_output.dat screen no
###################################################################################################


###################################################################################################
# Compute section

#centre of mass dump for type 1 atoms:
compute CoM1 1 com
variable t equal step
variable c1_x equal c_CoM1[1]
variable c1_y equal c_CoM1[2]
variable c1_z equal c_CoM1[3]
# fix CoM_File1 1 print 100 "${t} ${c1_x} ${c1_y} ${c1_z}" file com1.dat screen no

#centre of mass dump for type 2 atoms:
compute CoM2 2 com
variable c2_x equal c_CoM2[1]
variable c2_y equal c_CoM2[2]
variable c2_z equal c_CoM2[3]
# fix CoM_File2 2 print 100 "${t} ${c2_x} ${c2_y} ${c2_z}" file com2.dat screen no
###################################################################################################



###################################################################################################
# run integration for a number of steps to equilibrate with soft potentials
variable N equal 1000
run $N # for randomness
run 1000 
WARNING: Use special bonds = 0,1,1 with bond style fene (src/MOLECULE/bond_fene.cpp:181)
0 atoms in group FixGCMC:gcmc_exclusion_group:mc
WARNING: Fix gcmc is being applied to the default group all (src/MC/fix_gcmc.cpp:663)
Neighbor list info ...
  update every 1 steps, delay 10 steps, check yes
  max neighbors/atom: 2000, page size: 100000
  master list distance cutoff = 3.122462
  ghost atom cutoff = 3.5
  binsize = 1.561231, bins = 65 65 65
  1 neighbor lists, perpetual/occasional/extra = 1 0 0
  (1) pair lj/cut, perpetual
      attributes: half, newton on
      pair build: half/bin/newton
      stencil: half/bin/3d
      bin: standard
Per MPI rank memory allocation (min/avg/max) = 8.486 | 8.486 | 8.486 Mbytes
Step Temp E_pair E_mol TotEng Press Volume 
       0   0.93790286    2.4706958    20.870371    24.744404 0.0064891835      1000000 
     100   0.93790286    1.3379066    21.371116     24.11236 0.00076171111      1000000 
     200   0.93790286    1.2596118     21.40489    24.067839 0.00031249503      1000000 
     300   0.93790286    1.2839924    21.390371    24.077701 0.00044258999      1000000 
     400   0.93790286    1.1949675    21.385839    23.984144 0.0001258018      1000000 
     500   0.93790286    1.2313084    21.374287    24.008933 0.00024198861      1000000 
     600   0.93790286    1.1851546    21.396837    23.985329 3.3119794e-05      1000000 
     700   0.93790286    1.2482674    21.360697    24.012301 0.00035617735      1000000 
     800   0.93790286    1.2355137    21.412958    24.051808 0.00023028784      1000000 
     900   0.93790286    1.2246509    21.373195    24.001183 0.00022210566      1000000 
    1000   0.93790286    1.2187736    21.355349     23.97746 0.00023263191      1000000 
Loop time of 591.548 on 1 procs for 1000 steps with 400 atoms

Performance: 730.287 tau/day, 1.690 timesteps/s
99.9% CPU use with 1 MPI tasks x 1 OpenMP threads

MPI task timing breakdown:
Section |  min time  |  avg time  |  max time  |%varavg| %total
---------------------------------------------------------------
Pair    | 0.078044   | 0.078044   | 0.078044   |   0.0 |  0.01
Bond    | 0.015239   | 0.015239   | 0.015239   |   0.0 |  0.00
Neigh   | 1.3171     | 1.3171     | 1.3171     |   0.0 |  0.22
Comm    | 0.053429   | 0.053429   | 0.053429   |   0.0 |  0.01
Output  | 0.030699   | 0.030699   | 0.030699   |   0.0 |  0.01
Modify  | 590.05     | 590.05     | 590.05     |   0.0 | 99.75
Other   |            | 0.008092   |            |       |  0.00

Nlocal:        400.000 ave         400 max         400 min
Histogram: 1 0 0 0 0 0 0 0 0 0
Nghost:         0.00000 ave           0 max           0 min
Histogram: 1 0 0 0 0 0 0 0 0 0
Neighs:        6782.00 ave        6782 max        6782 min
Histogram: 1 0 0 0 0 0 0 0 0 0

Total # of neighbors = 6782
Ave neighs/atom = 16.955000
Ave special neighs/atom = 6.2700000
Neighbor list builds = 402000
Dangerous builds = 0
###################################################################################################

###################################################################################################
# printing the atoms positions to be used in the next section
# will not restart the simulation exactly, but the initial state is random anyway
write_data mc_configuration.txt nocoeff
System init for write_data ...
WARNING: Use special bonds = 0,1,1 with bond style fene (src/MOLECULE/bond_fene.cpp:181)
WARNING: Fix gcmc is being applied to the default group all (src/MC/fix_gcmc.cpp:663)
################################################################################################

################################################################################################################################################
                                                    #    Langevin Dynamics Simulation
################################################################################################################################################
clear
OMP_NUM_THREADS environment is not set. Defaulting to 1 thread. (src/comm.cpp:98)
  using 1 OpenMP thread(s) per MPI task
###################################################################################################
# Boundaries and units  (use LJ units and periodic boundaries)

units lj                 # use lennard-jones (i.e. dimensionless) units
boundary f f f           # all boundaries are non-periodic and fixed
processors * * *
###################################################################################################


###################################################################################################
# Global Variables:
# Remembered from above script
###################################################################################################


###################################################################################################
# Neighbour List

# Parameters: skin = extra distance beyond force cutoff
neighbor 2 bin
# neigh_modify every 10 delay 0 check yes # default settings
comm_modify mode single cutoff 3.5
###################################################################################################


###################################################################################################
# Setting up the regions


# the cuboid simulation box
region cuboid block -${halfLength} ${halfLength} -${halfLength} ${halfLength} -${halfLength} ${halfLength} # centred at the origin
region cuboid block -50 ${halfLength} -${halfLength} ${halfLength} -${halfLength} ${halfLength} 
region cuboid block -50 50 -${halfLength} ${halfLength} -${halfLength} ${halfLength} 
region cuboid block -50 50 -50 ${halfLength} -${halfLength} ${halfLength} 
region cuboid block -50 50 -50 50 -${halfLength} ${halfLength} 
region cuboid block -50 50 -50 50 -50 ${halfLength} 
region cuboid block -50 50 -50 50 -50 50 
###################################################################################################



###################################################################################################
# Setting up simulation box and reading atom positions

atom_style angle          # atoms with bonds, and angles
# # creating simulation box from cuboid region
# create_box 2 cuboid bond/types 1 extra/bond/per/atom 3
# # reading atoms from data file:
# read_data initial_configuration.txt group all add append shift 0 0 0 # -${half_cyl_length} # for cylinders not centred at the origin
# # includes: atom positoins, atom types, bonds, bond types, masses

read_data mc_configuration.txt
Reading data file ...
  orthogonal box = (-50.000000 -50.000000 -50.000000) to (50.000000 50.000000 50.000000)
  1 by 1 by 1 MPI processor grid
  reading atoms ...
  400 atoms
  reading velocities ...
  400 velocities
  scanning bonds ...
  2 = max bonds/atom
  reading bonds ...
  404 bonds
Finding 1-2 1-3 1-4 neighbors ...
  special bond factors lj:    0        0        0       
  special bond factors coul:  0        0        0       
     3 = max # of 1-2 neighbors
     5 = max # of 1-3 neighbors
    11 = max # of 1-4 neighbors
    14 = max # of special neighbors
  special bonds CPU = 0.003 seconds
  read_data CPU = 0.112 seconds

# Balancing the load on the processors:
# balance thresh shift dimstr Niter stopthresh
balance 2.0 shift z 50 1.2
Balancing ...
WARNING: Bonds are defined but no bond style is set (src/force.cpp:191)
WARNING: Likewise 1-2 special neighbor interactions != 1.0 (src/force.cpp:193)
###################################################################################################


###################################################################################################
# Set up interactions - switch to FENE bonds

## Between bonded atoms
bond_style   fene
# For style fene, specify:
#   * bond type
#   * K (energy/distance^2);
#   * R0 (maximum distance)
#   * epsilon (energy)
#   * sigma (distance)
variable max_distance equal 1.5*${sigma}
variable max_distance equal 1.5*1
bond_coeff   1   30.0   ${max_distance} 1 ${sigma}
bond_coeff   1   30.0   1.5 1 ${sigma}
bond_coeff   1   30.0   1.5 1 1


## Between non-bonded atoms
pair_style      lj/cut ${cutoff}
pair_style      lj/cut 1.12246204830937
# pair_modify shift yes        # option to ensure energy is calculated correctly; for WCA potential
#  pair_coeff for LJ, specify 4:
#    * atom type interacting with
#    * atom type
#    * energy; epsilon
#    * mean diameter of the two atom types; sigma
#    * cutoff
pair_coeff      * * 1.0 ${sigma} ${cutoff}
pair_coeff      * * 1.0 1 ${cutoff}
pair_coeff      * * 1.0 1 1.12246204830937
pair_modify shift yes # useful to shift the LJ potential so that there is no attraction

# special bonds: 1-2, 1-3, 1-4 interactions
special_bonds   fene
Finding 1-2 1-3 1-4 neighbors ...
  special bond factors lj:    0        1        1       
  special bond factors coul:  0        1        1       
     3 = max # of 1-2 neighbors
    14 = max # of special neighbors
  special bonds CPU = 0.002 seconds
# equivalent to special_bonds   lj 0.0 1.0 1.0 # The 1-2 LJ interaction is already included in the FENE bond; thus the special pair is set to 0
###################################################################################################


###################################################################################################
# Type groups:
group 1 id 1:${numberOfMonomers}
group 1 id 1:200
200 atoms in group 1
group 2 id ${firstMonomerSecondRing}:${totalMonomers}
group 2 id 201:${totalMonomers}
group 2 id 201:400
200 atoms in group 2
###################################################################################################

###################################################################################################
#updating fixes and integrator:

timestep 0.01

# variable seed equal 2500 # seed for the langevin white noise
fix integrator all nve
fix langevin1 all langevin   1.0 1.0 1.0 ${seed}  # langevin thermostat
fix langevin1 all langevin   1.0 1.0 1.0 357648192  

# setting up fixed reflecting walls:
# fix walls all wall/reflect xlo EDGE xhi EDGE ylo EDGE yhi EDGE zlo EDGE zhi EDGE
variable wall_sigma equal ${sigma}/2
variable wall_sigma equal 1/2
variable wall_cut equal ${wall_sigma}*2^(1/6)
variable wall_cut equal 0.5*2^(1/6)
fix walls all wall/region cuboid lj126 1 ${wall_sigma} ${wall_cut}
fix walls all wall/region cuboid lj126 1 0.5 ${wall_cut}
fix walls all wall/region cuboid lj126 1 0.5 0.561231024154687
###################################################################################################


###################################################################################################
# New dump:
dump dump1 all custom 100000 visual.dump id type x y z # for visualization
# dump position1 1 custom 100 positions1.dump id type x y z # positions printed for the monomer density/distribution
# dump position2 2 custom 100 positions2.dump id type x y z
# dump_modify position1 append yes
# dump_modify position2 append yes
###################################################################################################


###################################################################################################
# Compute section

#centre of mass dump for type 1 atoms:
compute CoM1 1 com
variable t equal step
variable c1_x equal c_CoM1[1]
variable c1_y equal c_CoM1[2]
variable c1_z equal c_CoM1[3]
#fix CoM_File1 1 print 1000 "${t} ${c1_x} ${c1_y} ${c1_z}" file com1.dat screen no

#centre of mass dump for type 2 atoms:
compute CoM2 2 com
variable c2_x equal c_CoM2[1]
variable c2_y equal c_CoM2[2]
variable c2_z equal c_CoM2[3]
#fix CoM_File2 2 print 1000 "${t} ${c2_x} ${c2_y} ${c2_z}" file com2.dat screen no
###################################################################################################


###################################################################################################
# Output thermodynamic info  (temperature, energy, pressure, etc.)
thermo 10000
thermo_style   custom   step  temp  epair  emol etotal  press  vol
###################################################################################################

###################################################################################################
# now do a longer run: for relaxing the system
variable N equal 10^7
run $N
run 10000000
Neighbor list info ...
  update every 1 steps, delay 10 steps, check yes
  max neighbors/atom: 2000, page size: 100000
  master list distance cutoff = 3.122462
  ghost atom cutoff = 3.5
  binsize = 1.561231, bins = 65 65 65
  1 neighbor lists, perpetual/occasional/extra = 1 0 0
  (1) pair lj/cut, perpetual
      attributes: half, newton on
      pair build: half/bin/newton
      stencil: half/bin/3d
      bin: standard
Per MPI rank memory allocation (min/avg/max) = 8.236 | 8.236 | 8.236 Mbytes
Step Temp E_pair E_mol TotEng Press Volume 
       0   0.93790286  0.053007873    21.355349    22.811694 -0.0032729887      1000000 
   10000   0.97462416  0.022882054    20.884116     22.36528 -1.3942256e-05      1000000 
   20000   0.99830633  0.018355864    20.961156    22.473228 -1.0449378e-06      1000000 
   30000   0.91343622  0.021385586    20.925768    22.313883 -0.00037130297      1000000 
   40000   0.99881995  0.040430155    20.948878    22.483793 9.5773697e-05      1000000 
   50000    1.0754092  0.030705606     20.91957    22.559357 0.00028265931      1000000 
   60000    1.0828521  0.026032599    20.919655    22.565905 -0.00028624991      1000000 
   70000    1.0450363  0.024490733    20.991965    22.580091 -9.4166305e-05      1000000 
   80000    1.0364145  0.026055095      20.9577     22.53449 0.00031311804      1000000 
   90000   0.98613626  0.024630849    20.970396    22.470533 0.00033941533      1000000 
  100000    1.0185202  0.038519203    20.998542    22.561022 0.00033638977      1000000 
  110000   0.98389793  0.039021489    20.979045    22.490223 0.0002007646      1000000 
  120000    1.0187961  0.026851597    20.946608    22.497834 -5.05644e-06      1000000 
  130000   0.99146726  0.018678163    20.956347    22.458508 0.00029206264      1000000 
  140000    1.0158388  0.030359381    20.917171    22.467479 6.6916808e-05      1000000 
  150000   0.95957473   0.03078492    20.998171     22.46472 -0.0001080649      1000000 
  160000    1.0190257  0.019358038    20.940131    22.484206 -8.5511961e-05      1000000 
  170000    1.0371019  0.012180265    20.937915    22.501859 -0.00018459853      1000000 
  180000   0.97512555  0.014372345    20.955089    22.428493 -3.8324356e-05      1000000 
  190000    1.0673898  0.019289022    20.956638    22.573009 -0.00013796126      1000000 
  200000    1.0060531  0.020269164    20.963186    22.488762 -0.00031333639      1000000 
  210000    1.0829842  0.022491104    20.981158    22.624064 0.00020855513      1000000 
  220000      1.01337  0.022791092    20.964181    22.503227 -0.00016122675      1000000 
  230000    1.0256863    0.0123221    20.929629    22.476634 -0.00012947795      1000000 
  240000   0.98076701  0.032817605    20.955747    22.456038 0.0002931842      1000000 
  250000    1.0653966  0.032463826    20.937441    22.564004 1.4590042e-05      1000000 
  260000   0.97179892  0.028664903    20.966065    22.448784 3.3523328e-05      1000000 
  270000    1.0341356  0.018337782     20.97408    22.539743 -0.00029953088      1000000 
  280000    0.9927687  0.025588576    20.985456    22.496475 -6.7060076e-05      1000000 
  290000    1.0278161  0.051105724    20.949792    22.538768 -0.0002304861      1000000 
  300000    1.1145863   0.02753695    20.923699    22.618935 0.00025949449      1000000 
  310000   0.91870076  0.039761356    20.931706    22.346074 7.7335993e-05      1000000 
  320000    1.0003285  0.035061795    20.959555    22.491358 0.00018401398      1000000 
  330000   0.90717338  0.035386723    20.954431    22.347176 0.00026654081      1000000 
  340000   0.96949553  0.020827477    20.982443    22.453878 -5.2952886e-05      1000000 
  350000   0.97404451  0.033307478    21.018737    22.509459 9.425856e-06      1000000 
  360000    1.0105599  0.027788192    20.932977    22.472816 7.6032757e-05      1000000 
  370000   0.96742567  0.019572027     20.95849    22.425572 3.9662973e-05      1000000 
  380000   0.96466148  0.012666632    20.944121    22.400163 6.3055203e-05      1000000 
  390000   0.96546751  0.016911375    20.998232    22.459724 -0.00012841974      1000000 
  400000    1.0633109  0.023114867    20.982563    22.596657 -3.957187e-05      1000000 
  410000   0.98317966  0.020428784    20.943175    22.434687 0.00029277937      1000000 
  420000   0.99981035  0.067332908    21.010088    22.573387 0.00011238269      1000000 
  430000    0.9835709  0.040991383    21.010945    22.523604 -6.0824408e-05      1000000 
  440000   0.95217468  0.019502409    20.950073    22.394267 3.1472855e-05      1000000 
  450000   0.99467599  0.028741465    20.941909    22.458935 0.00016412474      1000000 
  460000    1.0689853  0.033701521    20.945778    22.578949 0.00029188083      1000000 
  470000    1.0162726  0.015556906    20.993813    22.529968 -0.00030977192      1000000 
  480000   0.99405032  0.015678041     20.95623    22.459256 0.00030181224      1000000 
  490000   0.99567561  0.027984856    21.029281    22.547045 -4.2594777e-05      1000000 
  500000    1.0154417  0.039452315    20.940072    22.498879 0.00013040827      1000000 
  510000   0.96939435   0.02360079    20.963305    22.437362 -9.1056197e-05      1000000 
  520000    1.0288072  0.036166859    21.006753    22.582272 0.0001128274      1000000 
  530000   0.95822532  0.010998128    20.948336    22.393079 -6.6090857e-05      1000000 
  540000   0.96371457  0.027342183    21.011169    22.480469 -0.00011714363      1000000 
  550000    1.0027226  0.027520899    20.982933    22.510778 -6.381752e-05      1000000 
  560000   0.97671948  0.034773074    20.969568    22.465758 0.0003089936      1000000 
  570000    0.9618955  0.020340849    20.948794    22.408371 -3.5446287e-05      1000000 
  580000    1.0811762  0.019470939      20.8856    22.522781 0.00010543998      1000000 
  590000   0.96043293  0.032508237    20.953506    22.423062 -3.630701e-05      1000000 
  600000    1.0014101  0.016851825    20.926352    22.441563 -0.00018297594      1000000 
  610000   0.95429321   0.03025492    21.022396    22.480512 1.5656466e-05      1000000 
  620000    1.0187891  0.021849434    20.944734    22.490947 -0.00022035053      1000000 
  630000    1.0002413  0.031261716    21.020704    22.548577 -0.00052404035      1000000 
  640000   0.99671632  0.022892793    20.998461     22.51269 -0.00026258439      1000000 
  650000   0.93756395 0.0076109217    20.975794    22.386235 -6.3959522e-06      1000000 
  660000   0.99310905  0.040107561    20.959946    22.485993 0.0001659265      1000000 
  670000    1.0059919  0.019460007    20.942797    22.467472 0.00011214155      1000000 
  680000   0.97491586  0.025563435    20.947455    22.431736 0.00024042261      1000000 
  690000     0.973094   0.04234444    21.064036    22.562372 -0.00013666764      1000000 
  700000    1.0381355  0.018483279    20.972229    22.544023 0.00016803982      1000000 
  710000   0.96055691  0.037224905    20.958347    22.432805 1.8106031e-05      1000000 
  720000    1.0447854  0.035823269    21.031887     22.63097 5.0313575e-05      1000000 
  730000    1.0246933  0.018820559    20.952981    22.504999 0.00014122737      1000000 
  740000     1.017061  0.029953288     20.96642    22.518151 0.00023130997      1000000 
  750000   0.97400021  0.033958956    20.979291    22.470598 -7.8966885e-06      1000000 
  760000    1.0391369  0.028724071    21.047616    22.631148 1.6640426e-05      1000000 
  770000    1.0095144   0.03335434    21.016355    22.560195 -2.1889495e-05      1000000 
  780000    1.0057132  0.037012458    21.044992    22.586803 0.00027590403      1000000 
  790000    1.0360353  0.037784572    20.985319    22.573271 0.00037436151      1000000 
  800000   0.93995438  0.020907757    20.946287    22.373602 9.1447387e-05      1000000 
  810000   0.95466736  0.015559663    21.007722    22.451703 -2.3507864e-05      1000000 
  820000   0.96120639  0.038784331    20.938387    22.415376 0.00018907173      1000000 
  830000    1.0121866  0.015884056     20.91182    22.442188 -3.4269307e-05      1000000 
  840000    1.0213625  0.010826787    21.006668    22.545709 0.00022631554      1000000 
  850000   0.99690767  0.017567779    20.893277    22.402468 0.00012995772      1000000 
  860000   0.98792543  0.031382792    21.030657    22.540223 0.00028660612      1000000 
  870000   0.99254531  0.062117921    20.952575    22.499789 0.00031100951      1000000 
  880000     1.008987  0.023554123    20.909428    22.442679 2.6131042e-05      1000000 
  890000    0.9965766  0.031362879    20.892641    22.415131 5.1513177e-05      1000000 
  900000    1.0115463  0.036156407    20.953132    22.502815 5.0048049e-06      1000000 
  910000   0.96543436  0.033846008    20.998603     22.47698 1.9476294e-06      1000000 
  920000   0.91004788  0.027775959    20.965131    22.354566 -0.0004752164      1000000 
  930000    1.1196956   0.01230158    21.002095    22.689741 7.2559124e-05      1000000 
  940000   0.97247073  0.032999942    20.940772    22.428831 0.0003670464      1000000 
  950000    1.0659488   0.01623241    20.993468    22.604626 -0.00042857402      1000000 
  960000   0.98062401   0.03641773    20.925796    22.429473 -0.00029811884      1000000 
  970000   0.98003185  0.015313668    21.013046    22.494732 -0.00037250597      1000000 
  980000    1.0515969  0.041475279    20.973699    22.588626 0.00020531601      1000000 
  990000   0.97413855  0.036830442    20.992495     22.48688 0.00017116383      1000000 
 1000000    1.0897715   0.02504532    20.967464     22.62308 -0.00012147291      1000000 
 1010000     1.097575  0.031522098    21.036297    22.710065 0.00024732367      1000000 
 1020000    1.0584275  0.021649736    21.007169    22.612491 -0.00013638241      1000000 
 1030000    1.0275021  0.015144062    21.007278    22.559822 -0.00010422328      1000000 
 1040000   0.99517577  0.014802595    20.976485    22.480319 7.4308508e-05      1000000 
 1050000   0.95642955  0.013249313    20.962049    22.406356 0.00011013623      1000000 
 1060000   0.91220566  0.012770988    20.924591     22.30225 -0.00019913964      1000000 
 1070000    1.0153784  0.018717363    20.923652    22.461629 -0.00034538019      1000000 
 1080000    1.0060655   0.03780993    20.906242    22.449378 -0.00016246225      1000000 
 1090000    1.0630318  0.032208526    20.972143    22.594913 -4.2558258e-05      1000000 
 1100000   0.98063372  0.021223532    20.978532    22.467029 -0.00017414045      1000000 
 1110000    1.0326294  0.019437777    21.053318    22.617827 -0.00047386928      1000000 
 1120000   0.99575386  0.036026473    20.914942    22.440865 0.00035405173      1000000 
 1130000    1.0426342  0.025411379    20.979741    22.565194 0.00019577874      1000000 
 1140000    1.0276588  0.026860846    20.993163    22.557659 -1.6374179e-05      1000000 
 1150000    1.0570535  0.015897097    20.978269    22.575782 -0.00019918985      1000000 
 1160000    1.0424839  0.029992324     20.95275    22.542559 0.00042918497      1000000 
 1170000    1.0200462  0.024480399    20.970086    22.520811 0.00017538848      1000000 
 1180000    0.9971433  0.013244856    20.972147    22.477368 -0.00033262253      1000000 
 1190000   0.98397557  0.025437132     20.98357    22.481281 0.00020802424      1000000 
 1200000   0.97776569  0.018339318    20.987759     22.46908 -0.00032650538      1000000 
 1210000    0.9947314  0.029153367    20.869011    22.386532 0.00014611007      1000000 
 1220000   0.94048757  0.023799734    20.872136    22.303141 -5.8466801e-05      1000000 
 1230000   0.94895604  0.030331314    20.915767    22.365974 0.00027668869      1000000 
 1240000   0.95949813   0.02254755    20.939792    22.397988 -0.00013670511      1000000 
 1250000   0.98244597  0.030843542     20.96563    22.466459 1.8723802e-05      1000000 
 1260000   0.93737026  0.020104246    20.993693    22.416338 -0.00040259523      1000000 
 1270000   0.92968866  0.024158374    20.921881    22.337086 -0.0002408259      1000000 
 1280000    1.0726223  0.024372993    20.978938    22.608222 -4.5479479e-06      1000000 
 1290000     1.027233  0.026201261    20.991921     22.55512 9.9506591e-05      1000000 
 1300000   0.95795769  0.030014811    20.947439    22.410798 0.00023545887      1000000 
 1310000    1.1343726  0.034263589    20.848342    22.579911 0.00031746959      1000000 
 1320000   0.97313525  0.027370969    21.030364    22.513789 0.00017273806      1000000 
 1330000   0.99580625  0.026671376    20.929469    22.446116 3.2433476e-05      1000000 
 1340000    1.0521391  0.028666792    21.035119    22.638048 8.8190209e-05      1000000 
 1350000   0.97443025  0.016296047    20.945187    22.419474 -0.00013924146      1000000 
 1360000   0.93816792  0.027169693    20.976508    22.407411 0.00012628757      1000000 
 1370000   0.98255317  0.017310689    20.980873    22.468329 0.00031520246      1000000 
 1380000   0.93376032  0.035632277    20.917538     22.35031 -0.00016562176      1000000 
 1390000   0.91989007  0.026467717     20.95898    22.361833 0.00010659997      1000000 
 1400000    1.0745707  0.019800572    20.981235    22.608862 -8.6157193e-05      1000000 
 1410000    1.0409737  0.033471991    20.893536    22.484565 -0.00010032832      1000000 
 1420000   0.98184556  0.018901698    20.940766    22.428754 0.00025389489      1000000 
 1430000    1.0356244   0.04142136    20.958389    22.549363 -0.00015124634      1000000 
 1440000   0.91865602  0.023272533    20.961064    22.358875 0.00011677974      1000000 
 1450000   0.94842337  0.030416599    21.037981    22.487476 0.00014407686      1000000 
 1460000    1.0249127   0.03760064    20.966844     22.53797 0.00013399907      1000000 
 1470000    1.0473297  0.032525634    20.965831    22.565423 -0.00023000155      1000000 
 1480000    1.0401099  0.027875956    20.927936    22.512076 5.6434079e-06      1000000 
 1490000      1.04538  0.028338344    20.997723    22.590211 -0.00015897397      1000000 
 1500000   0.96006339  0.020391921    20.914266    22.371153 -5.625381e-06      1000000 
 1510000    1.0363782  0.037685256    20.918066    22.506432 -8.8225084e-05      1000000 
 1520000   0.95426262  0.017157509    20.953976    22.398948 0.00016189062      1000000 
 1530000    1.0513804  0.020647063    21.022647    22.616422 8.9859327e-05      1000000 
 1540000    1.0603107  0.024691116    20.958948    22.570129 -0.00013497552      1000000 
 1550000    1.0810963  0.012332013    20.958445    22.588368 -0.00020992657      1000000 
 1560000    1.0313808  0.022524236    20.950827    22.516555 -0.00017832071      1000000 
 1570000    1.0523912  0.026425036    20.940035    22.541101 0.00011931023      1000000 
 1580000    1.0071533  0.021594022    20.975436    22.503984 -0.00012820273      1000000 
 1590000   0.96437007  0.017527835    20.930475    22.390941 0.00020116396      1000000 
 1600000    1.0032787  0.016983555    20.946115    22.464255 2.4031864e-05      1000000 
 1610000   0.96858097  0.013705488    20.958544    22.421489 -7.9294778e-05      1000000 
 1620000   0.94721511  0.021767201    20.960751    22.399789 -0.00020910392      1000000 
 1630000   0.96661854  0.025130952    21.004446     22.47588 -5.3015642e-05      1000000 
 1640000   0.99607617  0.026831517    20.941176    22.458386 4.581955e-05      1000000 
 1650000    1.0171512  0.028508408    21.000476    22.550897 -0.00018826846      1000000 
 1660000   0.98831346  0.013942056    20.960525    22.453231 0.00020447457      1000000 
 1670000   0.95939829  0.024399913    20.951846    22.411746 -0.00010138768      1000000 
 1680000   0.97020314  0.023938237    20.960516     22.43612 -0.00037127121      1000000 
 1690000   0.98895677  0.020676662    20.929242    22.429645 -0.00032236924      1000000 
 1700000    1.0148456  0.028658518    20.955371    22.502492 3.6147298e-05      1000000 
 1710000   0.96238609  0.027072732    21.011225    22.478268 5.9157118e-05      1000000 
 1720000   0.94110207  0.036681663     20.91567    22.360476 0.00026984641      1000000 
 1730000    1.0504645  0.021720269    21.064575    22.658053 -0.00011822902      1000000 
 1740000   0.95473753  0.019200192    20.950655    22.398381 -0.00013261738      1000000 
 1750000    1.0446787  0.028391286    20.992147    22.583639 0.00010825645      1000000 
 1760000   0.98264971  0.034598283    20.959028    22.463916 0.00043210309      1000000 
 1770000    1.0512226  0.045901751    20.983247    22.602041 0.00033336079      1000000 
 1780000   0.95570812  0.016303562    20.984896    22.431178 -0.00044654621      1000000 
 1790000    1.0478336  0.013073277    20.922646    22.503541 3.0553524e-05      1000000 
 1800000   0.93757407  0.021221946    20.960426    22.384493 5.4163384e-05      1000000 
 1810000    1.0131636  0.037756203    20.898128     22.45183 0.00017632454      1000000 
 1820000   0.93500407   0.02913769    20.990546    22.418684 -0.00014584746      1000000 
 1830000   0.98395532  0.024083361    20.956064     22.45239 -0.00013640538      1000000 
 1840000   0.97172994  0.034448898    20.995294    22.483693 0.00059796755      1000000 
 1850000    1.0142506   0.03263315    21.051588    22.601794 0.0002033331      1000000 
 1860000    1.0690095  0.018002891    20.980771     22.59828 -0.00028034082      1000000 
 1870000   0.94213456  0.037612831    20.948152    22.395433 -0.00036369789      1000000 
 1880000   0.98015837  0.022756065    20.940476    22.429795 0.00014160309      1000000 
 1890000   0.98451873  0.028671427     20.92811    22.429868 0.00030846872      1000000 
 1900000    1.0066167  0.017944598    20.918495     22.44259 -7.5977463e-05      1000000 
 1910000    1.0303154  0.018675424    20.956511    22.516795 -0.0001938976      1000000 
 1920000    1.0565562  0.027311076    20.897174    22.505358 9.7144612e-06      1000000 
 1930000   0.98101108  0.024560179    21.033159    22.525557 6.7846897e-05      1000000 
 1940000    1.0334171  0.023903911    20.923634    22.493788 -0.00015113398      1000000 
 1950000    1.0324838  0.023465186     20.95544    22.523759 0.00049338127      1000000 
 1960000    1.0614562  0.035139196    20.999503    22.622846 0.00048186598      1000000 
 1970000    1.0370194   0.01502727    21.017108    22.583775 -0.00036131638      1000000 
 1980000     1.001615  0.022867328     20.91956    22.441094 9.7014678e-05      1000000 
 1990000   0.98164256  0.023787615    20.957784    22.450354 -0.00045071872      1000000 
 2000000    1.0309013  0.025974255    20.981063    22.549523 -1.0083762e-05      1000000 
 2010000    1.0407495  0.043950386    20.970988     22.57216 -3.1229042e-05      1000000 
 2020000   0.89995954  0.043312214    20.989267    22.379144 -5.0567929e-05      1000000 
 2030000   0.97837695  0.022842934    20.942526    22.429266 -4.3965107e-05      1000000 
 2040000    0.9982927   0.01378146     20.99973    22.507207 -0.00012548599      1000000 
 2050000     1.016369  0.045894675     20.96153    22.528166 0.00029207368      1000000 
 2060000   0.99359321   0.02619559    20.908766    22.421625 0.00019599604      1000000 
 2070000   0.97144271  0.022804489    20.956253    22.432579 0.00015166488      1000000 
 2080000    1.0549608  0.017516028    20.914946    22.510947 -0.00011820101      1000000 
 2090000    1.0072697  0.038609713     21.03371    22.579447 -0.0002051233      1000000 
 2100000    1.0224915  0.026929999    20.959564    22.516397 0.00010128829      1000000 
 2110000   0.98048935  0.010329794    20.983985    22.461371 -0.00013829222      1000000 
 2120000   0.98049877  0.017537181    20.965736    22.450345 -0.00015791993      1000000 
 2130000   0.99248267  0.023677932    20.951208    22.459889 -1.5936957e-05      1000000 
 2140000    0.9835699  0.017027498    21.014182    22.502876 -0.00049311991      1000000 
 2150000   0.98763544  0.031496244     20.96396    22.473205 0.00010124842      1000000 
 2160000   0.94911862  0.042286119    21.037651    22.500056 0.00045836436      1000000 
 2170000   0.98519099  0.024118799    20.971604    22.469815 0.00017705244      1000000 
 2180000   0.98073127  0.023318764    20.959109    22.449847 0.00025762318      1000000 
 2190000    1.0228192  0.021426868      20.9341     22.48592   0.00011942      1000000 
 2200000   0.90754985  0.028932733    21.000635    22.387489 -5.5086454e-07      1000000 
 2210000   0.98732137  0.024255551    20.946847    22.448382 0.00051918817      1000000 
 2220000    1.0154917  0.019015076    20.959711    22.498156 7.7382383e-05      1000000 
 2230000    1.0064917  0.021696559    20.928533    22.456193 7.6472686e-05      1000000 
 2240000     1.003907  0.040821306     21.01216    22.555077 0.00023348201      1000000 
 2250000     1.082099  0.031839216    20.917333    22.568263 0.00016764742      1000000 
 2260000    1.0507785  0.022904856    21.006061    22.601193 -0.0004209088      1000000 
 2270000    1.0167197  0.022930877    20.998358    22.542556 9.9780902e-05      1000000 
 2280000    1.0528034  0.021617002    20.922324    22.519198 6.0748207e-05      1000000 
 2290000   0.98940625  0.033642089    20.955014    22.469055 -0.00021480197      1000000 
 2300000    1.0470519  0.025897888    20.940474    22.533023 -0.00012592958      1000000 
 2310000    1.0496359  0.032550963    20.960093    22.563161 0.00010685693      1000000 
 2320000    1.0132009  0.014549437    20.961253    22.491804 -2.8347284e-05      1000000 
 2330000   0.98446235  0.022508344    20.911616    22.407126 0.0002474749      1000000 
 2340000    1.0650743  0.033224598      20.9996    22.626442 -0.00024114746      1000000 
 2350000   0.99058447  0.013124368    20.952268    22.447555 -0.00021013965      1000000 
 2360000    1.0540411  0.032455108     20.93082    22.540385 -0.00021390054      1000000 
 2370000   0.98382944  0.021344677    20.952847    22.446247 5.8791713e-05      1000000 
 2380000   0.98360332  0.024743558    20.997383    22.493843 -9.7104627e-05      1000000 
 2390000    1.0620321  0.028589958    20.979018    22.596674 -9.374129e-05      1000000 
 2400000    0.9448777  0.026105927     20.93212    22.371999 0.00021476623      1000000 
 2410000    1.0130102  0.015845094    21.013306    22.544868 -0.00029910863      1000000 
 2420000    1.0020665   0.02889106    21.008741    22.536974 -0.00024910795      1000000 
 2430000    1.0476666  0.023940044    20.937118    22.528629 0.00027974613      1000000 
 2440000   0.99458097  0.020754257    20.962905    22.471801 -4.8323755e-06      1000000 
 2450000    1.0906654  0.036539047    20.997741    22.666188 6.087078e-05      1000000 
 2460000   0.99691749  0.025991433    21.017561     22.53519 -0.00016574952      1000000 
 2470000   0.99215306  0.022745257    21.069324    22.576578 -0.00030491633      1000000 
 2480000    1.0023316  0.029258631    20.922046    22.451043 -0.0001324338      1000000 
 2490000    1.0099798  0.016312512    21.081195    22.608689 -0.00051704301      1000000 
 2500000   0.88429615  0.023910645    20.942869    22.289908 -4.5008697e-05      1000000 
 2510000   0.95427862  0.016640243    21.000363    22.444842 -1.8832424e-05      1000000 
 2520000    1.1300711  0.023286925    20.889994    22.604149 -0.00012131355      1000000 
 2530000    1.0270492  0.028198608    20.984174    22.549095 -7.4734968e-05      1000000 
 2540000    1.0339795  0.040426832    20.919957    22.507476 -0.00020307167      1000000 
 2550000   0.96230796  0.029217224    20.945911    22.414981 -0.00011117244      1000000 
 2560000    1.0603013  0.013400861    20.943163     22.54304 -0.00015431038      1000000 
 2570000    1.0052461  0.036854024    21.003119    22.544072 -0.00011754991      1000000 
 2580000    0.9647096  0.026190965    20.946884    22.416522 -0.00026223335      1000000 
 2590000   0.96034586  0.038491157    21.038429    22.513838 0.00011166672      1000000 
 2600000    1.0317412  0.022879069    21.011095    22.577717 1.6648726e-05      1000000 
 2610000   0.94235021  0.014873412    20.982734    22.407599 -0.00011080361      1000000 
 2620000   0.93031438  0.035698404     20.98473    22.412411 -7.6615046e-05      1000000 
 2630000   0.99147364  0.022331646    21.005103    22.510927 0.0004813944      1000000 
 2640000    1.0633702  0.033267957    20.982206    22.606541 -4.5608154e-05      1000000 
 2650000    1.0431974  0.026587984    21.010322    22.597794 -7.7760052e-05      1000000 
 2660000    0.9445113  0.017265934    20.985795    22.416286 -9.3093887e-05      1000000 
 2670000   0.92789784  0.027621318    20.961273    22.377262 -0.00035525432      1000000 
 2680000    1.0004273  0.030350163    20.946398    22.473638 2.5156301e-05      1000000 
 2690000   0.97679519  0.019736658    21.001115    22.482381 -2.0018369e-05      1000000 
 2700000   0.95205224  0.019379681    21.019686    22.463574 -0.00019186467      1000000 
 2710000    1.0395512  0.028375196    20.882162    22.465966 -0.00013263886      1000000 
 2720000    1.0208048  0.024508301    20.896449    22.448336 -0.00012801499      1000000 
 2730000    1.0350637  0.020125829    20.915998    22.484838 -0.000211104      1000000 
 2740000   0.95810208  0.031002643    20.919937      22.3845 0.00011526888      1000000 
 2750000   0.96962574  0.033749593    20.915719    22.400271 0.00041268732      1000000 
 2760000   0.98697315  0.033875752    21.092318    22.602953 7.9392618e-05      1000000 
 2770000     1.116474  0.014133085    21.002541    22.687198 -0.00047867082      1000000 
 2780000    1.0276565   0.03228185    21.033451    22.603364 0.00011563389      1000000 
 2790000   0.98764713  0.020765824    20.994041    22.492574 -4.7594101e-05      1000000 
 2800000    0.9800677  0.023816435    20.971469    22.461712 -0.00025320145      1000000 
 2810000   0.99907171  0.017746269    20.984258    22.496865 3.0163961e-05      1000000 
 2820000    1.0544126  0.027649178     20.91152    22.516834 -7.5039954e-05      1000000 
 2830000    1.0024279  0.011164446    20.950461    22.461508 -5.1884104e-05      1000000 
 2840000    1.0043113  0.032114936    20.922977    22.457793 0.00031398966      1000000 
 2850000   0.98265781  0.019153215    20.985462    22.474917 2.8930833e-05      1000000 
 2860000     1.043997  0.025038349    21.074994    22.662113 -0.00014821415      1000000 
 2870000    1.0357925  0.017731828    20.998536    22.566072 0.0003738847      1000000 
 2880000   0.98849568  0.028030116    20.947391    22.454458 -0.0002022039      1000000 
 2890000   0.96941329  0.020145628    20.916423    22.387053 -0.0001490868      1000000 
 2900000   0.98753117  0.034616046    20.957037    22.469246 3.786072e-06      1000000 
 2910000    1.0227965 0.0089539283    20.927146    22.466459 0.00027155181      1000000 
 2920000   0.98225221  0.031665392    21.050697    22.552058 6.6537008e-05      1000000 
 2930000   0.96187959  0.017984793    20.886709    22.343906 -0.00017020152      1000000 
 2940000     1.027073  0.018751668    20.983215    22.538724 -0.00013158004      1000000 
 2950000    1.0201149  0.017661711    20.985141     22.52915 -0.00011260847      1000000 
 2960000    1.0511487  0.031386962    20.988239    22.592407 -0.00021075261      1000000 
 2970000    1.0305047  0.033655851    20.966783    22.542332 -0.00021315319      1000000 
 2980000    1.0017924  0.058418615    20.935663    22.493014 -6.2091284e-05      1000000 
 2990000   0.99034103  0.021736544    20.922036    22.425571 0.00013287545      1000000 
 3000000   0.95150867   0.03205216    20.931594    22.387341 8.7868679e-05      1000000 
 3010000    1.1301544   0.02188967    20.983891    22.696774 5.2205499e-05      1000000 
 3020000   0.98284159   0.03288135    20.997114    22.500572 -9.0317204e-05      1000000 
 3030000   0.94580843  0.026541699    20.993962     22.43567 8.3186279e-06      1000000 
 3040000   0.99975529  0.025225533    21.022981    22.544091 -7.0919854e-05      1000000 
 3050000   0.94906045  0.034728463    20.933182    22.387942 -7.6841109e-05      1000000 
 3060000    1.0565744  0.014479509    20.938327    22.533706  -7.1176e-06      1000000 
 3070000    1.0440171  0.016617308    20.923092     22.50182 -0.00019424804      1000000 
 3080000     0.996831   0.02315099     20.95125     22.46591 -0.00023813431      1000000 
 3090000    0.9730449  0.019918127    21.001237    22.477074 -0.00011483047      1000000 
 3100000     1.022208  0.011017548    20.971945    22.512441 -0.00022025785      1000000 
 3110000   0.94019217  0.021146028    20.942518    22.370427 5.243868e-05      1000000 
 3120000    0.9558596  0.018794492     21.02103     22.47003 -0.00010688812      1000000 
 3130000    1.0498365  0.025474386    21.052259    22.648552 -0.0001633124      1000000 
 3140000    1.0624665  0.028746508    21.012064    22.630526 -4.617751e-05      1000000 
 3150000    1.0076554  0.019284615    20.908848    22.435837 0.00018488818      1000000 
 3160000    1.0908208  0.029210673    20.961498     22.62285 5.4235688e-05      1000000 
 3170000    1.0368733  0.015844454    20.911145    22.478411 -3.2946108e-05      1000000 
 3180000   0.99869086  0.030079619    20.989904    22.514275 -0.00023838454      1000000 
 3190000   0.93711738  0.025097676    20.961706    22.388966 -0.00015612472      1000000 
 3200000    1.0282828   0.02434996    20.960426    22.523344 -0.00018975826      1000000 
 3210000   0.97678611  0.023845848     20.99455    22.479912 -3.3034576e-05      1000000 
 3220000    1.0178847  0.041198992    20.953256    22.517465 0.00031527754      1000000 
 3230000    1.0269901  0.020911617    20.948703    22.506248 1.618604e-05      1000000 
 3240000      1.00676  0.019306194    21.051729      22.5774 -6.1037882e-05      1000000 
 3250000   0.96119578  0.025388439    20.969563     22.43314 -0.00018384119      1000000 
 3260000   0.93821537  0.035946908    20.917975    22.357727 0.00013241141      1000000 
 3270000   0.99300413  0.020363938    21.031159    22.537306 -0.00040469003      1000000 
 3280000   0.99261719  0.026363413    20.989727    22.501294 -6.6139307e-05      1000000 
 3290000    1.0186293  0.025674721    20.944484    22.494283  0.000365268      1000000 
 3300000    0.9791228  0.031268765    20.977004    22.473286 -0.00015512207      1000000 
 3310000   0.97663039  0.020428532    20.980364    22.462076 -2.2356305e-05      1000000 
 3320000   0.94411272  0.023441599    20.960047    22.396117 -0.00019198845      1000000 
 3330000    1.0555242  0.022808974    20.929735    22.531872 2.7982093e-05      1000000 
 3340000   0.99662725  0.025071223    20.876663    22.392938 -4.3341966e-05      1000000 
 3350000    1.0519778  0.014825506    20.925929    22.514777 -5.8313041e-05      1000000 
 3360000   0.99031293  0.032510478     21.02611    22.540376 0.00029202807      1000000 
 3370000    1.0197079  0.017709148    21.040401    22.583848 -4.9895962e-05      1000000 
 3380000     1.019851  0.035971764    21.047014    22.608938 0.00022754951      1000000 
 3390000    1.0761679  0.028806309    20.891469    22.530491 4.8251693e-05      1000000 
 3400000   0.94905403  0.018332346    20.893481    22.331836 5.7523311e-05      1000000 
 3410000   0.91424078  0.034987024    20.963783    22.366702 -2.7619813e-05      1000000 
 3420000   0.90511521  0.029969041    20.966131    22.350378 0.00014636742      1000000 
 3430000   0.99246556  0.035550815    20.916565    22.437093 -0.00026135613      1000000 
 3440000    1.0257432  0.029782154    20.928221    22.492772 0.00012641861      1000000 
 3450000   0.92742797  0.028088597     20.93354    22.349293 -0.00011486468      1000000 
 3460000    1.0324158  0.045967693    20.932699    22.523418 -0.00015128215      1000000 
 3470000   0.95406873    0.0340539    20.917733    22.379312 -7.6247389e-05      1000000 
 3480000    1.0122836   0.01999392    20.914581    22.449204 -0.00011539504      1000000 
 3490000   0.95449212  0.024319887    20.964388    22.416867 -7.220522e-05      1000000 
 3500000    1.0165819  0.019400143    21.030656    22.571117 0.00028083745      1000000 
 3510000    1.1065799  0.014217104    20.957618    22.627555 0.00019002485      1000000 
 3520000   0.97883642  0.028592119    20.967199    22.460375 -0.00036479574      1000000 
 3530000    1.0090581  0.010557699    20.994127    22.514488 -6.8202018e-05      1000000 
 3540000    1.0239268   0.03729574    20.960177    22.529523 0.00031986898      1000000 
 3550000   0.96541963   0.03256463    20.900176     22.37725 0.00032898119      1000000 
 3560000   0.97548993  0.013743575    20.937809    22.411129 -0.0002076063      1000000 
 3570000    1.0626876  0.026649406    20.980049    22.596745 0.00017307818      1000000 
 3580000    1.0684928  0.021870285     20.97686    22.597463 -0.00029254301      1000000 
 3590000   0.89887644  0.020967737    20.985792    22.351704 -0.00019870224      1000000 
 3600000   0.94892925  0.022141835    20.885349    22.327326 0.00015049876      1000000 
 3610000   0.96214284  0.024934926      20.9242    22.388741 4.9973071e-05      1000000 
 3620000   0.98194658  0.022794263    20.941084    22.433116 -0.00023908378      1000000 
 3630000   0.94077823  0.023433094    20.905676    22.336748 -0.00030623501      1000000 
 3640000     0.992121  0.019621125    20.971357    22.475439 9.6197802e-05      1000000 
 3650000     0.959551  0.025037184    20.984123    22.444889 -0.00010277759      1000000 
 3660000   0.96759317  0.019342795    20.949665    22.416769 -0.00018067441      1000000 
 3670000   0.92605777  0.038835116    21.044241     22.46869 -0.00012467945      1000000 
 3680000    1.0541397  0.013370231    20.926388    22.517015 -6.2166673e-05      1000000 
 3690000   0.95569556  0.015351467    20.922794    22.368105 0.00011225182      1000000 
 3700000    0.9348495  0.017178909     20.98932    22.405268 -0.00025892594      1000000 
 3710000    1.0311053  0.021779884    20.967286    22.531857 -0.00022078373      1000000 
 3720000    1.0483347  0.021155144    20.984048    22.573774 0.00019630725      1000000 
 3730000    1.0139602  0.043360902    21.009574    22.570073 5.629963e-05      1000000 
 3740000      1.00299  0.027149554    20.943238    22.471111 -0.00049392923      1000000 
 3750000    1.0062265  0.020873256    20.956454    22.482893 1.2645592e-05      1000000 
 3760000    1.0811634  0.038905753    20.933268    22.589864 0.00010244545      1000000 
 3770000    1.0237342  0.019570101     20.96747    22.518803 -3.8679863e-05      1000000 
 3780000    1.0301341  0.036701814    21.009022    22.587062 0.00042135565      1000000 
 3790000   0.99445004  0.040728575    20.925585    22.454259 -0.00028539962      1000000 
 3800000    1.0239058  0.034469858    20.966304    22.532793 0.00023546809      1000000 
 3810000    1.0350651  0.039859977    21.042409    22.630985 9.285792e-05      1000000 
 3820000    1.0515332  0.032679931    20.962061    22.568097 -0.00025220634      1000000 
 3830000     1.011473  0.031403858    20.985725    22.530546 -0.00019436279      1000000 
 3840000    1.0202285  0.023239909    20.967701    22.517458 5.4896777e-05      1000000 
 3850000   0.97518962  0.030679749    20.934288    22.424095 2.6562872e-05      1000000 
 3860000    1.0444513  0.018839964    20.963184    22.544784 0.00013573747      1000000 
 3870000   0.99054358   0.02051156    21.031513    22.534126 0.00013412593      1000000 
 3880000    1.0295772  0.014521657     20.92653    22.481557 -2.8072538e-05      1000000 
 3890000    1.0163148  0.023108932    20.956178    22.499948 2.4546097e-07      1000000 
 3900000   0.99753924  0.018536335    20.904075     22.41518 0.00016381912      1000000 
 3910000   0.95416134  0.011370558    21.006815     22.44585 -3.4739867e-05      1000000 
 3920000    1.0084352  0.029443689    20.996885      22.5352 0.00017209757      1000000 
 3930000   0.97611886   0.02208683    21.013064    22.495668 -3.9266573e-05      1000000 
 3940000   0.94732722  0.022267944      20.9405    22.380206 -0.00020608465      1000000 
 3950000   0.95323953  0.027061639    20.957229    22.410575 -0.00015827813      1000000 
 3960000   0.93568885  0.022877663    20.943789    22.366691 -0.00025699395      1000000 
 3970000    1.0694253  0.028390993    20.988959    22.617478 -0.00012821621      1000000 
 3980000   0.98996712  0.037024247    20.930706    22.448968 -0.00026005965      1000000 
 3990000    1.0348009  0.023392153    20.957606    22.529319 0.00021817687      1000000 
 4000000   0.97627041  0.017093817    20.952792     22.43063 5.6297563e-05      1000000 
 4010000   0.97248558   0.01467865    20.948822    22.418582 -6.4368611e-05      1000000 
 4020000    1.0525412  0.021518393     20.92647    22.522853 -0.00013055157      1000000 
 4030000    1.0083536  0.021172556    20.943188     22.47311 -0.00025879097      1000000 
 4040000    1.0090296  0.008272855    21.026634    22.544667 -0.00014434972      1000000 
 4050000   0.99489608  0.034869096     20.97933    22.502812 0.00036979077      1000000 
 4060000    1.0301645  0.024895913    20.989576    22.555856 0.00054876042      1000000 
 4070000    1.0360247   0.02732879    20.986059     22.56354 -0.00029649253      1000000 
 4080000     1.012672   0.02352756    20.966511     22.50525 0.00023637404      1000000 
 4090000    0.9476859  0.038376092    20.978988    22.435339 -0.0003986683      1000000 
 4100000    0.9957435  0.019437681    20.966539    22.475858 -0.00029095846      1000000 
 4110000    1.0065296  0.038179521     21.00169    22.545889 0.00035931991      1000000 
 4120000    1.0120803  0.013950245    20.937023    22.465299 7.4454303e-05      1000000 
 4130000    1.0125431  0.025593734    20.984216    22.524828 -9.0290548e-05      1000000 
 4140000   0.95276889  0.035597831    20.918363    22.379541 -0.00024381826      1000000 
 4150000   0.99145032  0.019754154    21.025258     22.52847 0.00011477108      1000000 
 4160000    1.0163364  0.011074766    21.016028    22.547796 -8.6956322e-05      1000000 
 4170000    1.0195614  0.021803444    20.978109    22.525431 4.0170273e-05      1000000 
 4180000    1.0121948  0.026537874    20.969043    22.510078 0.00059190969      1000000 
 4190000    1.0225379  0.022472627    20.989176    22.541621 0.00015929481      1000000 
 4200000    1.0909697  0.021197642    20.915085    22.568646 -0.00011654262      1000000 
 4210000   0.98025092  0.031675855    20.985522    22.483899 0.00018726333      1000000 
 4220000   0.98729195  0.023636117    20.945438     22.44631 -8.1288413e-05      1000000 
 4230000    1.0369776  0.018301839    20.973045    22.542925 -0.00044614988      1000000 
 4240000    1.0378003  0.025147217    20.917771    22.495727 0.00019389707      1000000 
 4250000   0.99388609  0.043115452    20.932639    22.462857 0.0002414151      1000000 
 4260000   0.93326627  0.024322081    20.971306    22.392028 0.00012934305      1000000 
 4270000   0.93873167  0.013363207    20.921241    22.339181 0.00019264238      1000000 
 4280000    1.0931194  0.034375109    20.948236    22.618191 -4.7226672e-05      1000000 
 4290000    1.0177367  0.031604047    20.974709    22.529102 0.00029180543      1000000 
 4300000    1.0045038  0.029983433    20.926264    22.459236 7.5381564e-05      1000000 
 4310000    1.0210208  0.025458733     20.96577    22.518931 -0.00011874017      1000000 
 4320000   0.98736609  0.021349362    20.875922    22.374618 -0.00010680327      1000000 
 4330000    0.9549106  0.022416892    20.909496    22.360698 -3.6904007e-06      1000000 
 4340000    1.0186855  0.024883264    20.925205    22.474296 8.8092069e-05      1000000 
 4350000    1.0151461  0.022949704    20.933401    22.475263 -0.0001589289      1000000 
 4360000   0.99868393  0.019021028    20.958771    22.472072 3.1955329e-05      1000000 
 4370000    0.9614114  0.031324254    20.953291    22.423127 -0.00026774079      1000000 
 4380000   0.98396827   0.01708725    21.012073    22.501423 0.00044352834      1000000 
 4390000   0.98555341  0.033228938    20.935805    22.443669 3.8642278e-05      1000000 
 4400000      1.00119  0.034933294    20.969044    22.502008 2.3584858e-05      1000000 
 4410000    1.0173326  0.040050221    20.946348    22.508582 -1.3232322e-06      1000000 
 4420000    1.0023473  0.025315063    20.975405    22.500482 0.00046066649      1000000 
 4430000   0.91942415  0.033884391     20.99751    22.407083 -0.00011310725      1000000 
 4440000    1.0203391  0.023287183    21.000579    22.550548 -5.6555963e-05      1000000 
 4450000   0.99633531  0.016665445    20.997307     22.50474 6.6874816e-05      1000000 
 4460000    1.0673508  0.055398385    20.955474    22.607896  6.82687e-06      1000000 
 4470000    1.0184699  0.020072835    21.039499    22.583457 -0.0003392466      1000000 
 4480000     1.024883  0.026099022    20.920333    22.479913 -1.8166734e-05      1000000 
 4490000    1.0628898  0.016043827    20.917184    22.523577 0.00018314055      1000000 
 4500000    1.0362531  0.022435761    21.048733    22.621663 -0.00021144115      1000000 
 4510000    1.0023014  0.028551402    20.950359    22.478604 -0.00016853368      1000000 
 4520000   0.95880933  0.033164477    20.973634    22.441417 -5.7674817e-05      1000000 
 4530000    1.0445939  0.017026821    20.967136    22.547136 5.6228166e-05      1000000 
 4540000   0.99646526  0.025123231    20.890174    22.406258 -2.2080144e-05      1000000 
 4550000     1.006498  0.010331534    20.904164    22.420468 -3.4153624e-05      1000000 
 4560000    1.0277569  0.032355955    21.035148    22.605285 -0.0001658297      1000000 
 4570000    0.9906487  0.030644972      20.9775    22.490403 0.00029577677      1000000 
 4580000    1.0126839  0.018583776    20.933935    22.467747 -0.00033027651      1000000 
 4590000    1.0225596  0.036074256    20.938835    22.504914 -7.3905739e-05      1000000 
 4600000    1.0101845  0.017381376    21.064362    22.593232 4.919395e-05      1000000 
 4610000    1.0407372  0.023807952    20.988309     22.56932 -0.0001849037      1000000 
 4620000    1.0330305  0.022013141    20.945454    22.513139 -5.6586594e-05      1000000 
 4630000    1.0430986  0.026109283     20.96773    22.554575 0.0001781549      1000000 
 4640000   0.95651026  0.026135931    20.975813    22.433128 8.5113579e-05      1000000 
 4650000   0.95545657   0.02134128    20.982417     22.43336 -0.00019579121      1000000 
 4660000     1.090156  0.016880819      20.8679    22.515926 5.7658624e-05      1000000 
 4670000    0.9523209  0.030425258     20.90497    22.360305 0.00011821932      1000000 
 4680000    1.0357605  0.024965466    21.003771    22.578493 0.00035802969      1000000 
 4690000     1.012851  0.030161882    20.929946    22.475586 0.00036901625      1000000 
 4700000   0.99867184  0.038935954    21.005199    22.538397 0.0001906018      1000000 
 4710000    1.0255849  0.031564555    20.973338    22.539434 -0.00015529255      1000000 
 4720000    1.0045379  0.011772696    21.030264    22.545076 6.6969899e-05      1000000 
 4730000   0.98407474  0.016540849    20.903565    22.392528 -3.801157e-06      1000000 
 4740000    1.0491279  0.024177779    20.885096    22.479032 0.00034555118      1000000 
 4750000   0.95342071  0.034691124    21.033979    22.495226 0.00028860089      1000000 
 4760000    1.0256885  0.015472966    20.950169    22.500328 2.1743756e-05      1000000 
 4770000   0.98373935  0.017871946    20.932201    22.421993 -0.00010487989      1000000 
 4780000   0.98184705  0.042571685    20.957714    22.469374 -8.5253076e-06      1000000 
 4790000    1.0225422  0.031052415    20.946193    22.507224 0.00021105367      1000000 
 4800000   0.99836689 0.0099610671    20.974493     22.47826 -0.00038932979      1000000 
 4810000    1.0109503  0.035829933    20.939825     22.48829 0.00043900012      1000000 
 4820000   0.93171553  0.018840228    20.985681    22.398601 0.00010202206      1000000 
 4830000    1.0369894  0.023737362    21.002075    22.577408 -0.00014351465      1000000 
 4840000   0.95410286  0.032354152    20.898732    22.358662 3.0322442e-05      1000000 
 4850000   0.99117548  0.023299892    20.930234     22.43658 0.00026868195      1000000 
 4860000    1.0120873  0.027969071    20.871508    22.413813 7.6009094e-05      1000000 
 4870000    1.0493254  0.022613698    20.948585    22.541252 0.00017512368      1000000 
 4880000    1.0112873  0.024839865    20.960031    22.498009 -0.00012378653      1000000 
 4890000    1.0441649  0.025609258    20.952227    22.540168 -5.016326e-05      1000000 
 4900000   0.98905333  0.026258627    20.888792    22.394921 0.00022039877      1000000 
 4910000    1.0166797   0.03479554    20.943638    22.499641 0.00022653082      1000000 
 4920000    1.0164955   0.02025906    20.911266    22.452457 0.00026990309      1000000 
 4930000    1.0005142  0.018106862    20.984051    22.499177 -0.00033416864      1000000 
 4940000   0.98267258  0.019453115    21.050202    22.539978 -0.00060828582      1000000 
 4950000    1.0217838  0.023630648      21.0182    22.570674 -0.00029521955      1000000 
 4960000   0.98109158  0.018373664    20.953265    22.439597 0.0002107524      1000000 
 4970000    1.0416057  0.035407681    20.938732    22.532642 -0.00016170096      1000000 
 4980000    1.0086992  0.015936209     21.00329    22.528492 -3.0523021e-05      1000000 
 4990000   0.99910493  0.017510954     21.03658    22.549002 0.00016815417      1000000 
 5000000    1.0660682  0.044334931    20.874737    22.514176 8.8690417e-06      1000000 
 5010000   0.99221458  0.018993823     20.97484    22.478435 -0.00033199273      1000000 
 5020000    1.0084496  0.030007966    20.959407    22.498308 -5.2142765e-05      1000000 
 5030000    1.0118001  0.023572847    21.003445    22.540924 -0.00015586065      1000000 
 5040000   0.98064969   0.02157643    20.939494    22.428368 0.00018762768      1000000 
 5050000    1.0391624  0.011789973    20.946172    22.512809 0.00038249788      1000000 
 5060000   0.99788951  0.024117017    20.951032    22.468242 -0.00019462673      1000000 
 5070000    1.0047219  0.012663089    20.922073    22.438052 0.00018455545      1000000 
 5080000    1.0232171  0.021709156    20.937738    22.490436 -0.00014431934      1000000 
 5090000    1.0794005  0.026162338    20.992083    22.633299 0.00017072431      1000000 
 5100000    1.0004746  0.033616718    20.904205    22.434781 -1.7187067e-05      1000000 
 5110000    1.0278272  0.022733106    20.907644    22.468263 0.00031876456      1000000 
 5120000   0.97680885  0.036380652    20.979068    22.476999 -0.00030148803      1000000 
 5130000    1.0093331  0.027547023    21.010373    22.548135 -0.00026067755      1000000 
 5140000   0.97427239  0.019088017    20.956871    22.433714 0.00014216706      1000000 
 5150000   0.99321386  0.041715121    20.963734    22.491545 -4.3923078e-05      1000000 
 5160000   0.91958434   0.02768402    21.036855    22.440467 -0.0002143165      1000000 
 5170000   0.97207187  0.025081623    20.968962    22.448506 -2.9212438e-05      1000000 
 5180000    1.0042998  0.038537474    20.907942    22.449163 8.6364854e-05      1000000 
 5190000    1.0941914  0.015796181    20.939286    22.592266 1.2184096e-05      1000000 
 5200000   0.87350151   0.02360187    20.939162     22.26974 -0.00031785796      1000000 
 5210000    1.0091671  0.021080216    20.967641    22.498687 0.00010855735      1000000 
 5220000    1.0676563  0.023571853    20.930587     22.55164 -4.6105482e-05      1000000 
 5230000    1.0411194   0.02532315    20.950329    22.533427 -8.6207704e-06      1000000 
 5240000     1.042005    0.0206916    20.992845    22.572636 0.0002357212      1000000 
 5250000     1.049579  0.036955251    20.948562     22.55595 -7.3565019e-05      1000000 
 5260000   0.96914406  0.016338469    20.945615    22.412035 -3.7875945e-06      1000000 
 5270000   0.97600829   0.02259584    20.980083    22.463031 0.00020396035      1000000 
 5280000   0.96892878  0.016983065    20.925773    22.392516 -2.38577e-05      1000000 
 5290000   0.98907051  0.020037926     20.95362    22.453554 8.7118755e-05      1000000 
 5300000     1.003772   0.01823715    20.955771    22.475902 -0.00046520728      1000000 
 5310000    1.0447217   0.03059074    20.991881    22.585636 0.00037465725      1000000 
 5320000    1.0485432  0.019065136    21.021608    22.609556 0.00022012813      1000000 
 5330000    1.0477013   0.02681344    20.933219    22.527655 -0.00014262628      1000000 
 5340000   0.92153509  0.032926429    20.954853    22.366626 -8.3086579e-06      1000000 
 5350000    1.0029393  0.017584478    20.950619    22.468852 -0.00012856526      1000000 
 5360000   0.93850194   0.02319246    21.032041    22.459467 -0.00034538848      1000000 
 5370000    1.0311072  0.026653163    20.909428    22.478876 -0.00034093071      1000000 
 5380000    1.0252027  0.020981454    20.934398    22.489339 -2.5563893e-05      1000000 
 5390000   0.95688096  0.038554692    21.047981    22.518269 -0.00010992787      1000000 
 5400000    1.0263731  0.019241896    20.902401    22.457353 -0.00020195344      1000000 
 5410000   0.92147409  0.017221836    20.934757    22.330735 0.00031145165      1000000 
 5420000   0.92644271   0.03150234    20.930822    22.348514 5.9071515e-05      1000000 
 5430000    1.0700906  0.033977352    21.010373    22.645473 7.3096448e-05      1000000 
 5440000    1.0463145   0.01728511     20.97932    22.562153 -0.00016120267      1000000 
 5450000   0.93554051   0.04823809    20.979567    22.427608 -6.4127254e-05      1000000 
 5460000    1.0113138  0.029983973    20.966384    22.509547 -0.00040817082      1000000 
 5470000    1.0222351  0.035044029    20.978003    22.542567 -5.726878e-05      1000000 
 5480000    1.0765101  0.027212085    20.929239    22.567179 7.8038307e-05      1000000 
 5490000    1.0072467 0.0096488254    21.027011    22.543752 0.00010437554      1000000 
 5500000   0.98856724  0.024911446    20.990267    22.494322 -0.00031709048      1000000 
 5510000      1.02548  0.031484973    20.921584    22.487443 -8.5970511e-07      1000000 
 5520000    0.9776437   0.02240778    20.974763    22.459971 -0.00012047105      1000000 
 5530000   0.92890563  0.019746728    20.960995    22.370617 -0.00017531833      1000000 
 5540000    1.0450981  0.051369771    21.035968    22.651066 0.00018064344      1000000 
 5550000    1.0078865  0.029685516    20.935201    22.472937 1.6578097e-06      1000000 
 5560000    1.0948211  0.023365397    20.930182    22.591674 3.4608677e-05      1000000 
 5570000   0.98501257  0.015972112    20.932847    22.422644 -5.8184805e-05      1000000 
 5580000     1.018565  0.029336301      21.0007    22.554064 7.6237733e-06      1000000 
 5590000   0.96702801  0.027801025    20.914534     22.38925 0.00032114506      1000000 
 5600000    1.0431863  0.024096007    20.975104    22.560068 0.00012689862      1000000 
 5610000    1.0102167   0.02124208    20.983989    22.516767 7.9947807e-05      1000000 
 5620000    1.0093291  0.021090838    20.911398    22.442698 0.00023692882      1000000 
 5630000   0.94527947  0.025520924      20.9638    22.403695 -0.0002291792      1000000 
 5640000   0.99980656  0.016286343    20.928357    22.440604 0.00013827618      1000000 
 5650000    1.0013245  0.018388746    20.973276    22.489897 -0.00014179789      1000000 
 5660000    1.0447469  0.016609775    20.957521    22.537334 -0.00011865639      1000000 
 5670000    1.0218716  0.020294336    20.895396    22.444666 -0.00013669372      1000000 
 5680000    1.0769512  0.032571041    20.992661     22.63662 -8.1225928e-05      1000000 
 5690000    1.0317757  0.044365555    20.942468    22.530628 0.00021274402      1000000 
 5700000    1.1014409  0.021027496      20.9603    22.629358 0.00020889004      1000000 
 5710000   0.98186628  0.017245041     20.94964    22.436003 -0.00010888116      1000000 
 5720000    1.0116631  0.027919472     20.96063     22.50225 -3.1265815e-05      1000000 
 5730000   0.94896812  0.021283554    20.894772    22.335949 0.0001234804      1000000 
 5740000   0.97365362  0.010956407    20.986393    22.454178 -5.9630732e-05      1000000 
 5750000    1.0267054  0.038956638     20.97148    22.546644 7.5489439e-05      1000000 
 5760000   0.96913137  0.036050812    20.969576    22.455689 1.0518739e-05      1000000 
 5770000   0.91585722  0.010757521    20.970157    22.351266 -2.8906225e-05      1000000 
 5780000    1.0304364  0.022576191    21.012569    22.576936 9.9926845e-05      1000000 
 5790000    1.0042338  0.025955867    20.998904    22.527445 0.00034217193      1000000 
 5800000   0.96441655  0.015382156    20.964374    22.422765 6.4327405e-05      1000000 
 5810000    1.0600367  0.012125164    20.983355     22.58156 -0.00028486159      1000000 
 5820000   0.92029051  0.016351786    20.981913     22.37525 -0.00044447151      1000000 
 5830000    1.0367015  0.019424733    20.933163    22.503753 0.00032096877      1000000 
 5840000    1.0602375  0.024818163    20.994099    22.605298 0.00021488114      1000000 
 5850000    1.0214718  0.032028641    20.969166    22.529572 1.709813e-05      1000000 
 5860000   0.97262742  0.043365421    20.990485    22.489144  0.000107465      1000000 
 5870000    1.0416897  0.029236201    20.986039    22.573904 0.00020154452      1000000 
 5880000   0.96718208  0.015177731    20.923524    22.385848 8.9293681e-05      1000000 
 5890000   0.98369608  0.019001746    20.965784    22.456641 0.00015698173      1000000 
 5900000   0.96343596  0.013306042    20.943016    22.397863 0.0001043904      1000000 
 5910000    1.0235522  0.024744531     20.96963    22.525865 -9.2800562e-05      1000000 
 5920000   0.98835263  0.027651219    21.020827    22.527301 0.00018029602      1000000 
 5930000    1.0799247   0.01653187    21.015518    22.647887 -4.1081252e-05      1000000 
 5940000    1.0502083  0.042783281    20.984892    22.599049 0.0004636004      1000000 
 5950000    1.0341813  0.045535438    20.992954    22.585884 -0.00018889414      1000000 
 5960000     1.018492  0.016978637    21.065644    22.606541 -0.00015551552      1000000 
 5970000    1.0384541   0.02294044    20.920483     22.49721 -0.00020092997      1000000 
 5980000     1.060829  0.037411795    20.941344    22.566021 5.0476772e-05      1000000 
 5990000   0.95183901  0.030736583    21.053797    22.508723 6.0854043e-05      1000000 
 6000000    1.0580644  0.025283487    20.920252    22.528664 0.00025168293      1000000 
 6010000    1.0159959  0.029979958    20.958906    22.509069 -0.00011697078      1000000 
 6020000    1.0168807   0.02456794    20.992424      22.5385 -0.0001034887      1000000 
 6030000    0.8977031  0.020210389    20.967243    22.330642 0.00071753093      1000000 
 6040000    1.0397219  0.036519536    20.972613    22.564817 -0.0002599468      1000000 
 6050000    1.0424804  0.024634205    20.937006    22.521452 0.0001804479      1000000 
 6060000   0.98576135  0.022569251    20.900339    22.397854 6.2518292e-05      1000000 
 6070000   0.99929981  0.018655995    20.964423    22.478281 9.9937022e-05      1000000 
 6080000    0.9716893  0.033173994    21.065612    22.552676 2.6764523e-05      1000000 
 6090000   0.99310436  0.022764144    20.961819    22.470515 -1.642098e-06      1000000 
 6100000    1.0719961  0.036127638    20.919527    22.559629 0.00016949967      1000000 
 6110000    1.0229831  0.021957579     20.92534    22.477936 -0.00025222494      1000000 
 6120000   0.98086318  0.028847924    20.945614    22.442079 -4.7779993e-05      1000000 
 6130000    1.0355274    0.0341804    20.954055    22.537643 7.7720186e-05      1000000 
 6140000    1.0122375  0.020358987    21.041522    22.576442 -8.655471e-05      1000000 
 6150000   0.98390941  0.043616103    20.970442    22.486233 -0.00027993677      1000000 
 6160000     1.041689  0.019348526    20.978271    22.556247 8.5272795e-06      1000000 
 6170000    1.0350788  0.037418847    20.961723    22.547879 5.8445092e-05      1000000 
 6180000   0.99656335  0.022584744    20.994875    22.508567 5.2361361e-05      1000000 
 6190000    1.1458296  0.025197069    20.941529    22.681174 0.00021892351      1000000 
 6200000   0.95674129  0.015890675    20.909502    22.356917 -0.00020126207      1000000 
 6210000   0.93457806  0.033517207     20.87317     22.30505 0.00013087348      1000000 
 6220000    1.0065732   0.01923048    20.865903    22.391219 -3.9087897e-05      1000000 
 6230000   0.99652814  0.024863323    20.952213    22.468132 -0.0003002821      1000000 
 6240000    1.0288338  0.014344022     21.03062    22.584357 -9.8096806e-05      1000000 
 6250000   0.96491899  0.014960509    21.001934    22.460654 -0.00017875326      1000000 
 6260000   0.93584403   0.02778942    21.028168    22.456214 -5.1946973e-05      1000000 
 6270000    0.9910864  0.024342396    20.997124     22.50438 0.00010970088      1000000 
 6280000    1.0537669  0.033799932    20.967107    22.577605 0.0002152011      1000000 
 6290000    1.0392815  0.035723042     20.98523    22.575978 -0.00026051579      1000000 
 6300000    1.0377648  0.027617602    20.918995    22.499368 -1.7402241e-05      1000000 
 6310000    1.0783702  0.032893769    20.904636    22.551041 -0.00018133573      1000000 
 6320000   0.98462135    0.0374343    20.986166     22.49684 -8.9833807e-05      1000000 
 6330000    1.0027411  0.026943208    20.949302    22.476596 2.1178285e-05      1000000 
 6340000   0.97710338  0.020489036    20.970545    22.453025 -0.00010940439      1000000 
 6350000    1.0263822  0.057762569    20.967123     22.56061 -0.0002209107      1000000 
 6360000   0.98194799  0.028212063    21.043214    22.540666 0.00020443835      1000000 
 6370000    1.0175278   0.01368176    20.976275    22.512432 -0.00011670164      1000000 
 6380000    1.0028468  0.021290433    20.916931    22.438731 -6.8767109e-05      1000000 
 6390000    0.9851038  0.013183638    20.908283    22.395428 -0.0002080814      1000000 
 6400000   0.99888969  0.019120691    21.025053    22.538762 -0.00014662298      1000000 
 6410000    1.0151058  0.026190998    21.010658    22.555701 -9.4936937e-05      1000000 
 6420000    1.0003777  0.014676084    20.968906    22.480398 8.469782e-05      1000000 
 6430000    1.0398624   0.01390096    20.940511    22.510306 -0.00031931608      1000000 
 6440000   0.95142208  0.016043113    21.045123    22.484732 -0.00047847722      1000000 
 6450000   0.90997855  0.023257365     20.95933    22.344143 -0.00023643406      1000000 
 6460000    1.0183449  0.012182025    20.962063    22.497944 -0.00022112575      1000000 
 6470000      1.00123   0.03787944     20.96774     22.50371 2.4090614e-05      1000000 
 6480000    1.0258507  0.013333136    20.892227    22.440489 -8.4167879e-05      1000000 
 6490000    1.1021207  0.036202471    21.028027    22.713278 5.3837844e-05      1000000 
 6500000    1.0376447  0.019089573    21.008405     22.58007 4.7689534e-05      1000000 
 6510000    1.0264088  0.030993813    20.989707    22.556465 -0.00039271169      1000000 
 6520000    1.0913279  0.021547597    20.943833     22.59828 4.0271843e-05      1000000 
 6530000    1.0121486  0.016185385    20.979468    22.510081 -6.5070089e-05      1000000 
 6540000   0.99645534  0.028979933    20.893669    22.413596 0.00020234988      1000000 
 6550000   0.97529182  0.026107965    20.979173    22.464561 -0.00021826939      1000000 
 6560000    1.0253659  0.025106147    20.921535    22.480845 0.0003856244      1000000 
 6570000   0.94794665  0.011263685    20.945918    22.375547 -0.00026685507      1000000 
 6580000   0.96123965  0.029741802    21.011094    22.479091 -0.00035718782      1000000 
 6590000    1.0225931  0.020470502    20.999614    22.550139 -0.00010302483      1000000 
 6600000    1.0769423  0.017586242    20.935784    22.564746 3.1015144e-05      1000000 
 6610000   0.98010061  0.018573849    20.997799    22.482848 0.00017570949      1000000 
 6620000    1.0024604  0.016636857    20.901672     22.41824 -0.00028904385      1000000 
 6630000    1.0143821  0.036733944    20.976726    22.531229 3.968109e-05      1000000 
 6640000    1.0147494  0.026251381    20.925082    22.469652 5.2155247e-05      1000000 
 6650000   0.97894695  0.023314279    20.909756     22.39782  7.73985e-05      1000000 
 6660000    0.9920778  0.034882469    20.872993    22.392272 -9.9237793e-05      1000000 
 6670000    1.0089445  0.046778547    21.012148     22.56856 -1.864508e-05      1000000 
 6680000   0.97028256  0.017321501    20.952808    22.421915 -0.00029269246      1000000 
 6690000    1.0388876  0.024543075    21.040939    22.619918 -0.00013308148      1000000 
 6700000    0.9396641  0.019460886    20.967918    22.393351 -4.0284062e-05      1000000 
 6710000    1.0026808  0.019072018    21.032955    22.552288 0.00023052792      1000000 
 6720000    1.0118951  0.047438161     20.89828    22.459766 0.00027225211      1000000 
 6730000    1.0594888   0.02899101     21.01636    22.630611 5.200488e-05      1000000 
 6740000    1.0330413  0.024114523    21.000894    22.570697 -0.00011941726      1000000 
 6750000    1.0822665   0.01685967    21.053152    22.689353 -0.00033482781      1000000 
 6760000    1.0695404  0.021635373    20.959741    22.581676 4.7696186e-05      1000000 
 6770000   0.94780107  0.038422931    20.924035    22.380605 0.00019632454      1000000 
 6780000    1.0617511  0.015231372    20.981038    22.584915 -0.00030078403      1000000 
 6790000   0.97600498  0.024080201    20.996628    22.481055 -0.00014795822      1000000 
 6800000    1.0050567  0.020952169    20.917522     22.44229 -0.00015356675      1000000 
 6810000    1.0340661  0.025584338    20.953501    22.526306 0.00014746493      1000000 
 6820000    1.0228856  0.027832713    20.958723    22.517048 7.9998607e-05      1000000 
 6830000   0.95165156  0.027736631    20.902105    22.353751 0.00026043981      1000000 
 6840000    1.0211116  0.015625386    20.982978    22.526441 -7.512716e-05      1000000 
 6850000    0.9538293  0.038781824    20.913307    22.379256 -0.00021603102      1000000 
 6860000    1.0022623  0.038742493    20.930442    22.468819 1.7495809e-05      1000000 
 6870000    1.0173811  0.020618833    20.974418    22.517293 -0.00017531988      1000000 
 6880000    1.1434878  0.016978192    20.972238    22.700159 -0.000465569      1000000 
 6890000    1.0315629  0.011537162    20.927128    22.482141 -0.00032868961      1000000 
 6900000   0.98811333  0.036375367    20.964702    22.479542 -0.00019520687      1000000 
 6910000    0.9658239 0.0075888669    21.008225    22.460928 -0.00034807831      1000000 
 6920000   0.96626582  0.035508443    20.865884    22.347168 -0.000207867      1000000 
 6930000   0.94977776  0.021541396    20.940842    22.383488 -0.00031788506      1000000 
 6940000   0.96363324  0.023848656    20.931671    22.397356 0.00010875116      1000000 
 6950000    1.0289966  0.024122236    21.004122     22.56788 -0.00018792385      1000000 
 6960000    1.1401327  0.017660769    20.989401    22.712985 0.00019171051      1000000 
 6970000    1.0160867  0.027877476    20.938493     22.48669 -6.790072e-05      1000000 
 6980000   0.95346831   0.02356561    21.027269    22.477461 -0.000415686      1000000 
 6990000    1.0880118  0.029442585    20.918269    22.575649 -2.2065969e-05      1000000 
 7000000    1.0001698  0.026157647    21.004318     22.52698 0.00019408948      1000000 
 7010000    1.0216779  0.021534066    20.983763    22.533982 0.00025112721      1000000 
 7020000   0.98791096  0.030430087    20.996303    22.504894 -0.00011379269      1000000 
 7030000   0.98150603  0.021899886    20.957447    22.447925 -0.00021897891      1000000 
 7040000     1.025937   0.01544027    20.966499    22.516997 9.5303033e-06      1000000 
 7050000   0.97302856  0.013436598    20.859935    22.329266 0.00014202824      1000000 
 7060000     1.032151  0.028348754    20.972674    22.545378 -8.5545927e-05      1000000 
 7070000     1.014851  0.034776267    20.945257    22.498504 9.5730397e-05      1000000 
 7080000   0.91587612  0.040684493     20.98978    22.400844 0.00016416194      1000000 
 7090000    1.0249948 0.0076043713    21.010821    22.552074 -0.00010143613      1000000 
 7100000   0.95326477  0.028174648    21.003195    22.457692 0.00024867051      1000000 
 7110000    1.0296699   0.02354889    20.993991    22.558184 1.8056284e-05      1000000 
 7120000    1.0151703  0.011637553    20.941803    22.472389 7.9448772e-05      1000000 
 7130000   0.91671414  0.027226781    20.925574    22.324434 -1.4710759e-05      1000000 
 7140000   0.95970795  0.027490053    21.051693    22.515147 -0.00057524601      1000000 
 7150000    1.0661297  0.010508539    20.977878    22.583583 -0.00017730285      1000000 
 7160000    1.0335218  0.046278921    20.994905    22.587591 -1.1671477e-05      1000000 
 7170000   0.98744298  0.017483885    20.940821    22.435767 -2.7731445e-05      1000000 
 7180000   0.94256568  0.037398363    20.917909    22.365621 7.1428231e-05      1000000 
 7190000    1.0414517  0.033741769     20.99954    22.591554 0.00031650622      1000000 
 7200000   0.99145501  0.013007843    20.914491    22.410963 -0.00021948022      1000000 
 7210000    1.1097733  0.048623559    21.003835    22.712957 4.7010605e-05      1000000 
 7220000   0.98108512  0.032719278    20.939064    22.439732 0.00024567133      1000000 
 7230000    1.0971207  0.012607745    20.964645     22.61882 0.00037988118      1000000 
 7240000    0.9581084  0.021732292    20.940419    22.395721 -0.00019568059      1000000 
 7250000   0.99868663  0.012761608    21.022195    22.529242 0.00013695081      1000000 
 7260000    1.0021788  0.037912438    20.927377    22.464799 0.00042793322      1000000 
 7270000    1.0032072  0.026629989      20.9063    22.433979 4.3038744e-05      1000000 
 7280000    1.0289062  0.015777731     20.98077    22.536048 3.1232157e-05      1000000 
 7290000     1.024539  0.024745208    20.959198    22.516909 -6.0308569e-05      1000000 
 7300000   0.96167399  0.034075433    20.916014    22.388994 -3.5457514e-05      1000000 
 7310000   0.97867073  0.034269194    20.989064    22.487669 -2.9956147e-05      1000000 
 7320000    0.9867788  0.027062372    20.955411    22.458941 4.278561e-05      1000000 
 7330000   0.98704139  0.021959954    20.928201    22.427021 -4.0067355e-05      1000000 
 7340000    1.0015987  0.026999012    20.969806    22.495448 1.9788769e-06      1000000 
 7350000    1.0113394  0.032537027    21.019898    22.565652 0.00023999585      1000000 
 7360000    1.0213734  0.019114592    20.966349    22.513694 -1.6408897e-05      1000000 
 7370000    1.0122353   0.01586681    20.928018    22.458442 -6.6567414e-05      1000000 
 7380000   0.93073486   0.03049632      21.0047    22.427809 -0.00025110075      1000000 
 7390000   0.91873857     0.026514    20.953373     22.35455   0.00016901      1000000 
 7400000   0.94388452  0.057020493    20.993282     22.46259 -0.0002495518      1000000 
 7410000   0.98032879  0.035084806    20.977136    22.479038 6.2876144e-05      1000000 
 7420000   0.94785812  0.013079724     21.02036    22.451673 0.00019956637      1000000 
 7430000   0.89671464   0.02397221    20.896835    22.262517 -9.7360127e-05      1000000 
 7440000   0.99984461  0.034673789    20.942074    22.472765 -0.00011092486      1000000 
 7450000   0.98385863  0.038733638    20.907328     22.41816 -3.107525e-05      1000000 
 7460000    1.0153039  0.022504128    20.942484    22.484136 0.00020707344      1000000 
 7470000    1.0197137   0.02998649    20.977424    22.533158 -9.2992318e-05      1000000 
 7480000    1.0212025 0.0058226959    20.939294    22.473091 0.00021698299      1000000 
 7490000    1.0811531  0.030643566    20.991021     22.63934 0.00011920493      1000000 
 7500000   0.97578078   0.02250316    20.954833    22.437348   7.8823e-05      1000000 
 7510000   0.97125697  0.019941661    20.980608    22.453793 -3.6575016e-05      1000000 
 7520000   0.94005784  0.044420346    20.882498     22.33348 0.00021601556      1000000 
 7530000    1.0808276  0.027463161    20.967948      22.6126 0.00015374123      1000000 
 7540000   0.99034912  0.028216995    20.952739    22.462766 -2.4737721e-05      1000000 
 7550000   0.99502783  0.024130521    20.923566    22.436507 1.5187022e-06      1000000 
 7560000    1.0390038  0.033340845    20.962307    22.550257 -8.7386772e-05      1000000 
 7570000    1.0256941  0.030438742    20.937544    22.502677 -0.00023617959      1000000 
 7580000    1.1215632   0.03032764    20.937524    22.645991 -6.6089767e-05      1000000 
 7590000   0.97305309  0.036715697    20.952712    22.445358 0.00010306852      1000000 
 7600000   0.98376996  0.014990572    20.970344    22.457301 -0.0002461525      1000000 
 7610000   0.99158085  0.020827255    20.966371    22.470851 0.00016650515      1000000 
 7620000   0.93800308 0.0092899202    20.970264    22.383041 -5.9246884e-05      1000000 
 7630000    1.0267188  0.015283146     21.03669    22.588201 -9.7023511e-05      1000000 
 7640000    1.0032049  0.031670638    21.005319    22.538035 -0.00018386103      1000000 
 7650000    1.0071061   0.03381226    20.990304    22.530999 0.00024599037      1000000 
 7660000    1.0069321   0.03188787    20.978426    22.516936 -0.00017192819      1000000 
 7670000    1.0355738  0.014435001    20.993308     22.55722 -1.9982432e-05      1000000 
 7680000   0.99872938  0.014228156     21.02494    22.533517 -0.00031919971      1000000 
 7690000    1.0484594  0.036387156    20.993968    22.599113 0.00019961863      1000000 
 7700000    1.0259776   0.02274129    21.004424    22.562284 -0.00025694376      1000000 
 7710000   0.97477025  0.028774244    21.022954    22.510229 -7.7127528e-06      1000000 
 7720000   0.98393205  0.027709163     21.06424    22.564157 -5.2940639e-05      1000000 
 7730000   0.99552685   0.02688425    20.946186    22.462628 0.00061666173      1000000 
 7740000    1.0403742  0.033242352    20.929028     22.51893 0.00020756013      1000000 
 7750000    1.0023812  0.028403772    20.931756    22.459973 6.5597716e-05      1000000 
 7760000    1.0452651  0.021569891    21.083624    22.669172 0.00014020774      1000000 
 7770000   0.97872335  0.049971687    20.946571    22.460958 1.9555708e-05      1000000 
 7780000   0.97687806  0.012689879    20.898876     22.37322 -2.9206048e-05      1000000 
 7790000    1.0219636  0.039870252    20.976261    22.545244 0.0005236141      1000000 
 7800000    1.0469392  0.031335751    20.915609    22.513428 -8.1020817e-05      1000000 
 7810000    1.0341613  0.029567458    20.998712    22.575643 2.417919e-05      1000000 
 7820000    1.0410937  0.023886339    20.923582    22.505205 6.4166705e-05      1000000 
 7830000   0.95617287  0.021656799    20.956915    22.409246 -3.815277e-05      1000000 
 7840000    1.0179943  0.014693633    20.923421    22.461289 0.00018139374      1000000 
 7850000   0.96985884  0.047401195    20.986496    22.485049 0.00017323629      1000000 
 7860000    1.0038541  0.027430375     20.96806    22.497507 0.00012937043      1000000 
 7870000    1.0141711  0.032406368    20.951212    22.501072 9.401644e-05      1000000 
 7880000   0.99806957  0.023996712    21.009401    22.526759 -0.00017632153      1000000 
 7890000   0.99818535  0.028680012    20.988492    22.510707 -3.2198114e-05      1000000 
 7900000    1.0097838  0.031191187    20.997965    22.540045 -0.0001434703      1000000 
 7910000   0.99323336  0.021997676    20.932652    22.440775 -0.00025643388      1000000 
 7920000   0.99126647   0.02096655    20.988858    22.493007 -0.00029406268      1000000 
 7930000    1.0673182  0.036953978    21.042189    22.676117 -5.1399269e-05      1000000 
 7940000     1.037983  0.019466455    20.953434    22.525983 -7.7385393e-05      1000000 
 7950000    1.0129549  0.014262963    20.934274    22.464171 -0.00012842582      1000000 
 7960000   0.92545034  0.023424379    20.980918    22.389047 -0.00048938532      1000000 
 7970000    1.0633408  0.026080384    20.956341    22.573445 -0.0004772459      1000000 
 7980000    1.0591204   0.01696802    20.948965    22.550642 -8.4286508e-05      1000000 
 7990000    1.0142695  0.030507882    20.873059    22.421168 -4.7316863e-05      1000000 
 8000000   0.98513918  0.022480395    21.000834    22.497329 -0.00023201046      1000000 
 8010000   0.93312542  0.010851126    20.937771    22.344811 0.00033174318      1000000 
 8020000   0.96952332  0.036281944    20.949003    22.435934 0.00014644591      1000000 
 8030000    1.0083385  0.027291075    20.933476    22.469493 0.00017260836      1000000 
 8040000    1.0122957  0.014882525    20.935382    22.464912 0.00027503027      1000000 
 8050000   0.94227904  0.035762866    21.008169    22.453817 3.4988978e-05      1000000 
 8060000   0.98963282  0.031807754    20.955186    22.467732 0.00018548617      1000000 
 8070000   0.96752703  0.022405081    20.983966    22.454033 -0.00040052468      1000000 
 8080000   0.95512982  0.030576579    20.931483    22.391172 0.00020394059      1000000 
 8090000    1.0753778  0.036956523    20.986108    22.632098 0.00045792256      1000000 
 8100000    1.0262736 0.0099980426     20.92251    22.468069 -0.00029828923      1000000 
 8110000    1.0070138  0.039443348    20.991603     22.53779 -0.00011731344      1000000 
 8120000   0.97107794  0.027719138    20.956453    22.437147 0.00035380374      1000000 
 8130000   0.93390007  0.018730943    20.968554    22.384633 -0.00035401441      1000000 
 8140000    1.0013604  0.029490928    20.966202    22.493979 -0.00025321501      1000000 
 8150000   0.92900141  0.032787455    20.928999    22.351805 0.00031610587      1000000 
 8160000   0.99881784  0.023316462    20.949763    22.467561 0.00049502677      1000000 
 8170000    1.0276045  0.025972112      20.9875    22.551026 -0.00030126641      1000000 
 8180000    1.0191559  0.025098997     20.92061    22.470621 0.00022608136      1000000 
 8190000   0.93061817  0.043829011    20.992393     22.42866 -0.00035912231      1000000 
 8200000   0.96752913  0.025181002    20.970671    22.443517 -0.00017787739      1000000 
 8210000    1.0074652  0.017218753    20.942976    22.467615 0.00021972697      1000000 
 8220000    1.0672566  0.020506304    20.922627    22.540016 0.00019949544      1000000 
 8230000    1.0305826  0.022787869    20.986423     22.55122 0.00043146766      1000000 
 8240000   0.97218533  0.015829583    20.933123    22.403584 6.804929e-05      1000000 
 8250000    1.0181436  0.029646949    20.992695     22.54574 0.00023141341      1000000 
 8260000     1.001523  0.015692179    20.927033    22.441254 5.9043849e-05      1000000 
 8270000   0.97406107  0.021930396    20.995265    22.474634 -0.00040627516      1000000 
 8280000   0.99935709  0.019419056    20.926251    22.440958 2.824399e-05      1000000 
 8290000   0.98195064  0.021961807     20.95576    22.446965 -0.000259004      1000000 
 8300000     0.997363  0.035176499    20.944483    22.471963 0.00031399904      1000000 
 8310000   0.97149687   0.02661422    20.959151    22.439367 8.034597e-05      1000000 
 8320000    1.0133084   0.03492927    20.987162    22.538254 -0.00029428392      1000000 
 8330000   0.98406482  0.029694031    20.918316    22.420417 -0.00023109484      1000000 
 8340000   0.97141112  0.022711944    20.976214      22.4524 0.00012930162      1000000 
 8350000    1.0393031  0.029763671     20.93215    22.516971 0.00015823671      1000000 
 8360000   0.93939257  0.022499475    20.968822    22.396887 -0.00027761013      1000000 
 8370000   0.99431586  0.025027575    20.988254    22.501027 -0.00028296521      1000000 
 8380000    1.0016258   0.02684389    20.981577    22.507104 -0.00016222265      1000000 
 8390000    1.0161915  0.040525341    20.941352    22.502353 -3.0349499e-05      1000000 
 8400000    1.0240399  0.023034128    21.038061    22.593315 0.0002292602      1000000 
 8410000    0.9898335  0.021963809    20.960294    22.463296 -0.0002746852      1000000 
 8420000    1.0052156  0.026503268    20.899171    22.429728 -0.0001366721      1000000 
 8430000   0.95170265  0.033800521    20.920526    22.378312 0.00014074796      1000000 
 8440000   0.99950353  0.033403161    20.984573    22.513483 -0.00010006074      1000000 
 8450000    1.0732246  0.033176151    20.982436    22.621424 6.5845784e-05      1000000 
 8460000   0.98502987  0.032425069    20.930671    22.436947 0.00041554545      1000000 
 8470000    1.0355884  0.020353748    20.947284    22.517137 2.1111232e-05      1000000 
 8480000    1.0151202  0.020906201    20.933497    22.473277 -3.6115475e-05      1000000 
 8490000    1.0389678  0.030930139    21.008757    22.594242 -0.00030575414      1000000 
 8500000    1.0311481  0.035220551    21.030491    22.608566 -0.00048950853      1000000 
 8510000   0.94505517  0.033912145    20.928614    22.376565 -0.0001346972      1000000 
 8520000    1.0585175  0.031584018    20.961528    22.576919 8.4166815e-05      1000000 
 8530000    1.0422625  0.023162619    20.983164    22.565812 -1.8672345e-05      1000000 
 8540000    1.0480483  0.020307695    20.981718    22.570168 -0.0001939653      1000000 
 8550000   0.95535256  0.036702031    20.931954    22.398102 -0.00012462659      1000000 
 8560000    1.0438442  0.016592592    20.967748    22.546193 0.00021877579      1000000 
 8570000   0.99296733  0.032284192    20.980968    22.498979 0.00014081345      1000000 
 8580000    1.0309861  0.024415235    20.932019    22.499047 0.00034409564      1000000 
 8590000    1.0106583  0.057452022    20.888418    22.458067 -5.316023e-05      1000000 
 8600000    1.0138235  0.015318453    21.013844    22.546096 0.0001072096      1000000 
 8610000   0.99990264  0.024485303    21.030811      22.5514 -0.00026709251      1000000 
 8620000    1.0475222 0.0076543173    20.916244    22.491254 -2.5842334e-05      1000000 
 8630000     1.115203  0.016442646    20.966715     22.65178 -0.00011449234      1000000 
 8640000    1.0327521  0.021947418    20.942842    22.510045 0.00020565139      1000000 
 8650000    1.0065597   0.04121729    20.943832    22.491114 -0.00053427459      1000000 
 8660000    1.0632338  0.029364109    20.942652     22.56288 -0.0003462579      1000000 
 8670000   0.96525028  0.023716086    20.927537    22.395509 -0.0001587725      1000000 
 8680000   0.99394812  0.029482692    20.874355    22.391033 -0.00022453465      1000000 
 8690000    1.0210106  0.030832328    20.981203    22.539723 -0.00017781177      1000000 
 8700000    1.0022912  0.020413573     20.90298    22.423072 3.9678587e-05      1000000 
 8710000    1.0535486  0.031001326    20.936872    22.544245 -0.0001456754      1000000 
 8720000    1.0610314  0.022043379    20.966115    22.575727 5.5272165e-05      1000000 
 8730000   0.95891894  0.028835029    20.991952     22.45557 -3.6599507e-05      1000000 
 8740000    1.0321785  0.017222067    21.026985    22.588604 4.1450744e-05      1000000 
 8750000    1.0435983  0.018971213    20.981361    22.561816 3.5862454e-05      1000000 
 8760000   0.97567659  0.021030513    20.998652    22.479538 -0.00020836251      1000000 
 8770000   0.98680686  0.025908764    20.960448    22.462866 0.00028155183      1000000 
 8780000    1.0867027  0.026519061    20.911151    22.563649 0.00023649148      1000000 
 8790000   0.98184124  0.028784294    20.941097    22.438962 -2.9492533e-05      1000000 
 8800000   0.97709703  0.022171739    20.959007    22.443161 -0.00021597092      1000000 
 8810000   0.96469753  0.015222469    20.975171    22.433822 -0.00026550601      1000000 
 8820000    1.0044189  0.016717094    20.928069    22.447647 -6.2008418e-06      1000000 
 8830000   0.96069856  0.023917732    21.054481    22.515844 -6.0348269e-05      1000000 
 8840000    1.0292759  0.023300052    20.940001    22.503355 0.00031018128      1000000 
 8850000    1.0277064  0.020884978    20.919804    22.478395 0.0004573327      1000000 
 8860000   0.99363649  0.024814499    20.949775    22.461318 -0.0001076824      1000000 
 8870000    1.0469422  0.027670811    20.995853    22.590011 -0.0001768106      1000000 
 8880000   0.98078499  0.040892742    20.954947    22.463339 0.00026803844      1000000 
 8890000    1.0174448  0.018789878    20.981136    22.522278 -2.0829308e-05      1000000 
 8900000     1.012002  0.017574445    20.981046    22.512829 -0.00033111229      1000000 
 8910000   0.99136939  0.019593929    20.946543    22.449473 4.3522656e-05      1000000 
 8920000    1.0903476  0.023428918    20.954449     22.60931 6.756845e-05      1000000 
 8930000   0.96691791  0.022630565    20.950827    22.420209 2.0553808e-05      1000000 
 8940000   0.98604811  0.042341967    20.992633     22.51035 4.0000176e-05      1000000 
 8950000    1.0330145  0.043933115    20.905401    22.494982 -0.00026378393      1000000 
 8960000    1.0229833  0.029237463    21.039318    22.599194 4.1685942e-05      1000000 
 8970000   0.98876339  0.017845258    20.963383    22.460665 -0.00013076113      1000000 
 8980000   0.99011095  0.018999619    20.970168    22.470621 0.00030072285      1000000 
 8990000    1.0459214  0.016273491    20.970948    22.552182 0.00016847832      1000000 
 9000000     1.038742  0.021020948    20.940767    22.516006 5.0365389e-05      1000000 
 9010000    1.0694641  0.035803619    20.988609    22.624598 0.00048720667      1000000 
 9020000    1.0246718  0.024118012    20.953983    22.511266 -0.0004772418      1000000 
 9030000    1.0391494  0.021856045    20.983672    22.560355 -9.2360938e-05      1000000 
 9040000   0.96792609  0.035643715    20.989341    22.473244 -3.8623859e-05      1000000 
 9050000   0.99185763  0.034739847    21.014527    22.533334 -2.3771552e-05      1000000 
 9060000    1.1074659  0.039915472    21.009971    22.706933 -0.00011979022      1000000 
 9070000   0.93644553  0.043281356    20.971605    22.416043 0.00013940486      1000000 
 9080000    1.0314484  0.044860573    20.930524     22.51869 0.00015899696      1000000 
 9090000    1.0685117  0.020183758    21.011899    22.630843 -3.5069681e-05      1000000 
 9100000   0.93202962  0.040380822    20.991816    22.426746 -8.1465792e-05      1000000 
 9110000    0.9332139  0.023798256    20.979714    22.399834 0.00014299253      1000000 
 9120000    1.0737235  0.014393407    20.982446    22.603398 0.00018445422      1000000 
 9130000    0.9826572  0.023388692    21.001328    22.495018 -9.6396395e-05      1000000 
 9140000    1.0458029  0.024464181    20.927913     22.51716 -0.0002505124      1000000 
 9150000    1.0134028  0.006548606    20.967935    22.490787 0.00012205384      1000000 
 9160000    1.0047481  0.016277493    20.982846    22.502478 -0.00043803341      1000000 
 9170000   0.94205767  0.019865526    20.936808    22.366227 -5.1471189e-05      1000000 
 9180000   0.95944504  0.031001128    20.986368    22.452938 6.6508635e-05      1000000 
 9190000    1.0114661  0.025410226     20.93475    22.473567 0.00061019006      1000000 
 9200000    1.0372205  0.031150666    21.019442    22.602534 -0.00019139619      1000000 
 9210000   0.96999536  0.026410101    21.033443    22.511208 0.00034648087      1000000 
 9220000    1.0385216  0.024455355    21.008363    22.586706 0.00017107436      1000000 
 9230000    1.0130425  0.030794901    21.013169    22.559729 -3.2957179e-05      1000000 
 9240000    1.0740293  0.021505238    20.935128     22.56365 0.0005623824      1000000 
 9250000    1.0767676  0.024751055    20.974897    22.610762 0.00016358473      1000000 
 9260000    1.0247054   0.03603366    20.985596    22.554845 1.6430085e-05      1000000 
 9270000   0.99134213  0.027037957    20.951794    22.462127 0.00017920078      1000000 
 9280000   0.94817903  0.048641104    21.002975    22.470329 0.00016191947      1000000 
 9290000    1.0116734  0.026023593    20.909636    22.449376 9.0141623e-05      1000000 
 9300000   0.99957013   0.01561215    21.013074    22.524293 -9.4880391e-05      1000000 
 9310000   0.96362027  0.026935871    20.993829    22.462582 -6.5932226e-05      1000000 
 9320000   0.97577908  0.040359705    20.966869    22.467238 -5.7673798e-05      1000000 
 9330000     1.053454   0.02127093    20.964609    22.562111 -0.00016068601      1000000 
 9340000     1.020815  0.022043686    20.890505    22.439943 -0.00041367313      1000000 
 9350000     1.028271  0.019611548    20.941768    22.499929 0.00010633343      1000000 
 9360000    1.0584989  0.027806465    20.992758    22.604343 0.0002936244      1000000 
 9370000    1.0576612  0.019564051    20.964536    22.566626 0.00012262946      1000000 
 9380000   0.99371743  0.016279974    20.929726    22.432856 -0.00026910432      1000000 
 9390000    1.0130158  0.026348313    20.960919    22.502993 -0.00018890771      1000000 
 9400000    1.0476347  0.027547856    21.040321    22.635393 7.9758024e-05      1000000 
 9410000   0.98903424  0.018544058    20.976374     22.47476 -0.00022052209      1000000 
 9420000    1.0063114  0.036807184    20.978419    22.520919 -0.00015980636      1000000 
 9430000    1.0426362  0.033456425    20.973613    22.567114 0.00048138114      1000000 
 9440000    1.0036404  0.027965182    20.992946    22.522608 -0.00045414342      1000000 
 9450000   0.98749345  0.027412645    20.986723    22.491673 8.344347e-05      1000000 
 9460000    1.0471657  0.025023714    20.988731    22.580576 -7.7748448e-05      1000000 
 9470000   0.95819623  0.029324427    20.967857    22.430883 0.00023486513      1000000 
 9480000   0.93102614  0.026610347    20.953615    22.373273 -0.00013795092      1000000 
 9490000   0.94387958  0.028408679    21.007186    22.447874 0.00017178184      1000000 
 9500000    1.0327326  0.028604596    20.948379    22.522209 4.2713312e-05      1000000 
 9510000    1.0457496  0.010436459    20.932438    22.507578 -0.00026840311      1000000 
 9520000   0.99589856  0.038712149    21.003408    22.532233 -0.00017782168      1000000 
 9530000    1.0153862  0.042445761    20.949741    22.511459 9.9759258e-05      1000000 
 9540000   0.95927049  0.012194776    20.962639    22.410143 -0.00019134435      1000000 
 9550000    1.0177038  0.011657453    21.015133     22.54953 -0.00039590281      1000000 
 9560000    1.0104911  0.012264959    20.955297     22.47951 3.6629307e-05      1000000 
 9570000    1.0118801  0.028051643    20.988798    22.530875 -3.0374689e-06      1000000 
 9580000   0.98021595  0.013193639    20.938104    22.417946 -6.2136693e-05      1000000 
 9590000    1.0330819  0.018410882    20.939619    22.503779 -0.00012817757      1000000 
 9600000   0.99504616  0.033951972    21.024885    22.547675 0.00011806718      1000000 
 9610000    1.0358889  0.022681385     21.06458     22.63721 -0.00043946414      1000000 
 9620000    0.9569304  0.028644316    20.942656    22.403107 0.00019333096      1000000 
 9630000    1.0381318  0.031556831     20.92549    22.510351 4.6496852e-05      1000000 
 9640000   0.99027603  0.030155038    20.928187    22.440043 0.00013739475      1000000 
 9650000   0.98373324   0.03603616     21.00746    22.515407 -7.6044668e-05      1000000 
 9660000   0.94497614  0.032557962    20.997459    22.443938 1.1021707e-05      1000000 
 9670000   0.97909362  0.021214265    20.968875    22.455058 -9.4496133e-06      1000000 
 9680000    1.0195726  0.024300845    20.904672    22.454508 -0.00018678036      1000000 
 9690000   0.95049402  0.032321582    20.934816    22.389314 -9.5981927e-05      1000000 
 9700000    1.0186775  0.023797491    20.880067    22.428061 5.8577604e-05      1000000 
 9710000    1.0377341   0.02068703    20.966748    22.540144 0.00012661886      1000000 
 9720000   0.98737064  0.015361716    20.999192    22.491907 0.00018291068      1000000 
 9730000    1.0098801  0.018639302    20.968127      22.4978 -0.000134969      1000000 
 9740000    1.0097373  0.030066123    21.012021    22.552907 -6.9648782e-05      1000000 
 9750000     1.014766  0.028202372    20.963907    22.510453 1.4856647e-05      1000000 
 9760000    1.0229401  0.034857448    20.867139    22.432571 6.106865e-05      1000000 
 9770000    1.0450095  0.030907587    20.944579    22.539082 4.7762412e-05      1000000 
 9780000   0.96876593  0.034403752    20.940789    22.424709 8.2765302e-05      1000000 
 9790000   0.90862295  0.027043634    21.003417    22.389988 0.00012049522      1000000 
 9800000    1.0505225  0.029243509    20.966301    22.567389 0.00027704557      1000000 
 9810000   0.99843381  0.030874606    21.033059    22.557841 -0.0001826122      1000000 
 9820000   0.97570246  0.024219141    20.890473    22.374587 0.00010942348      1000000 
 9830000   0.96142547  0.011129453    20.974343    22.424005 -0.00011830852      1000000 
 9840000     1.029755  0.027119494      20.9158     22.48369 -0.00031396726      1000000 
 9850000    1.0073479  0.021520088    20.916112    22.444876 0.00014517247      1000000 
 9860000    1.0027883   0.02954331    20.959356    22.489321 1.5725854e-05      1000000 
 9870000    1.0306852  0.030970445    20.907466      22.4806 -0.0001372022      1000000 
 9880000    1.0345948  0.016523984    20.980243     22.54478 -7.1588882e-05      1000000 
 9890000    1.0140537  0.018124346    20.966972    22.502374 -0.00021561141      1000000 
 9900000   0.93673204  0.021140833    20.949064     22.37179 3.4954319e-05      1000000 
 9910000   0.99855253  0.052925151    20.948396    22.495406 -0.00024504743      1000000 
 9920000    1.0184472  0.012468224    20.998625    22.534945 -0.00032622238      1000000 
 9930000    1.0729134  0.034124155     20.91777    22.557241 0.00031034262      1000000 
 9940000     1.017767  0.029385603    20.985942    22.538161 -0.00030310449      1000000 
 9950000    1.0471869  0.018902192    20.947477    22.533233 0.00012926139      1000000 
 9960000    1.0032737  0.020703938    20.970569    22.492421 -0.00011894638      1000000 
 9970000    1.0294615  0.029149386    20.960971    22.530452 1.6626978e-06      1000000 
 9980000   0.95706333   0.02397149    20.946347    22.402325 8.9035727e-05      1000000 
 9990000    1.0529489   0.05285644    20.876655    22.504986 -0.00015061176      1000000 
10000000    1.0259559  0.017635774    20.980916    22.533638 -2.7353984e-05      1000000 
Loop time of 1682.87 on 1 procs for 10000000 steps with 400 atoms

Performance: 5134087.412 tau/day, 5942.231 timesteps/s
100.0% CPU use with 1 MPI tasks x 1 OpenMP threads

MPI task timing breakdown:
Section |  min time  |  avg time  |  max time  |%varavg| %total
---------------------------------------------------------------
Pair    | 242.96     | 242.96     | 242.96     |   0.0 | 14.44
Bond    | 169.06     | 169.06     | 169.06     |   0.0 | 10.05
Neigh   | 295.06     | 295.06     | 295.06     |   0.0 | 17.53
Comm    | 15.672     | 15.672     | 15.672     |   0.0 |  0.93
Output  | 0.28855    | 0.28855    | 0.28855    |   0.0 |  0.02
Modify  | 930.58     | 930.58     | 930.58     |   0.0 | 55.30
Other   |            | 29.25      |            |       |  1.74

Nlocal:        400.000 ave         400 max         400 min
Histogram: 1 0 0 0 0 0 0 0 0 0
Nghost:         0.00000 ave           0 max           0 min
Histogram: 1 0 0 0 0 0 0 0 0 0
Neighs:        2517.00 ave        2517 max        2517 min
Histogram: 1 0 0 0 0 0 0 0 0 0

Total # of neighbors = 2517
Ave neighs/atom = 6.2925000
Ave special neighs/atom = 2.0200000
Neighbor list builds = 291753
Dangerous builds = 0
###################################################################################################


###################################################################################################
# printing the state, in case one wanst to continue from here:
write_data final_configuration.txt
System init for write_data ...
WARNING: Not all mixed pair coeffs generated from mixing. Use write_data with 'pair ij' option to store all pair coeffs. (src/write_data.cpp:312)
Total wall time: 0:37:55
