LAMMPS data file via write_data, version 29 Sep 2021, timestep = 10000000

100 atoms
13 atom types
100 bonds
1 bond types

-50 50 xlo xhi
-50 50 ylo yhi
-50 50 zlo zhi

Masses

1 1
2 1
3 1
4 1
5 1
6 1
7 1
8 1
9 1
10 1
11 1
12 1
13 1

Pair Coeffs # lj/cut

1 1 1
2 1 1
3 1 1
4 1 1
5 1 1
6 1 1
7 1 1
8 1 1
9 1 1
10 1 1
11 1 1
12 1 1
13 1 1

Bond Coeffs # fene

1 30 1.5 1 1

Atoms # angle

168 0 1 21.454377798736285 2.8107693647797625 -14.928310625948162 0 0 0
162 0 1 20.42643080675243 3.335314796712846 -13.027604667664942 0 0 0
169 0 1 20.90041317902141 2.2830494185720256 -14.332214879749621 0 0 0
170 0 1 21.727994672001955 1.9606283107447444 -13.998791144928862 0 0 0
163 0 1 21.08216927932707 3.6882667431571887 -13.725246892847592 0 0 0
164 0 1 21.47937825401699 4.488592647535779 -13.991626057262453 0 0 0
165 0 1 20.738671730951978 4.851902580437644 -14.46362401992019 0 0 0
166 0 1 20.485387820219447 4.271656004009741 -15.213417853374171 0 0 0
167 0 1 21.225365236114303 3.6612897011989585 -15.202953578778606 0 0 0
161 0 1 19.84365772500311 3.4157723974471343 -13.716105671249723 0 0 0
160 0 1 19.585327137197034 2.5259039281545657 -13.85572458797824 0 0 0
159 0 1 18.727536967182996 2.8507126004319003 -13.493326898476445 0 0 0
171 0 1 21.744272531424368 1.1116760726198305 -13.492945485941986 0 0 0
172 0 1 22.16989144366945 1.4290750650607114 -12.714003491141055 0 0 0
173 0 1 23.06504703850652 1.0198982744556122 -12.579353802193232 0 0 0
174 0 1 23.633519922142767 0.22507149205536825 -12.67572226487715 0 0 0
175 0 1 22.82397036819716 -0.2798942001157274 -12.453596039459539 0 0 0
158 0 1 18.28923052575662 2.155130293937459 -12.931364602073163 0 0 0
157 0 1 18.011440318715 1.7059756391732164 -12.097740044337392 0 0 0
156 0 1 17.531244530092927 0.8084805661034121 -11.896128137678748 0 0 0
179 0 1 22.113344179141478 0.3199198685032671 -10.92945976016375 0 0 0
178 0 1 22.196199012092443 0.3909743245724925 -11.8513842269878 0 0 0
176 0 1 22.625976263595224 -0.6420894019355807 -11.554259116628085 0 0 0
177 0 1 21.844726819028946 -0.45524291140952283 -12.100811162732464 0 0 0
155 0 1 17.58496711083746 0.4535985255196422 -11.031817850351159 0 0 0
154 0 1 16.69751771442044 0.14332145635500065 -11.030151895090999 0 0 0
181 0 1 21.736563012339612 1.3076993134434525 -9.546998165001673 0 0 0
180 0 1 22.235342718016025 1.0186917187156361 -10.329701132827143 0 0 0
153 0 1 16.395627774338692 1.1843539569243287 -10.947333253371966 0 0 0
152 0 1 17.290287450456855 1.4395267908313254 -10.576047732160285 0 0 0
184 0 1 22.44253553744626 2.6256825100857246 -7.994563688788281 0 0 0
185 0 1 22.215712997084022 3.0699424445402586 -7.16587205117339 0 0 0
183 0 1 22.330810898718966 2.9248281276106405 -8.898129358543601 0 0 0
182 0 1 22.14431627034776 1.9750569525070305 -9.01293703715496 0 0 0
200 0 1 18.57221977283811 1.0872643878823869 -11.248853608363454 0 0 0
151 0 1 18.09132242182728 1.840671974302738 -10.842771425203754 0 0 0
186 0 1 21.29386069338653 3.4124627579718596 -7.235667058805941 0 0 0
187 0 1 20.925513199121994 3.4994501853644575 -8.11847455269403 0 0 0
191 0 1 18.655198091194535 4.4185267227346765 -7.966532383701322 0 0 0
189 0 1 19.936578367753352 4.88514246597039 -7.910019592820769 0 0 0
190 0 1 19.4991952083528 4.057065021737153 -8.231404579724968 0 0 0
188 0 1 20.63682967762401 4.339880762290084 -7.839172379032145 0 0 0
194 0 1 17.40114504626731 3.895580992174999 -9.105277669367942 0 0 0
196 0 1 18.639707096205345 2.4618141691811966 -9.010590995030572 0 0 0
197 0 1 19.31703172589038 2.3585445208159674 -9.66756657935908 0 0 0
195 0 1 18.15662214785522 3.30888944083448 -8.919533177506864 0 0 0
193 0 1 18.051626417044982 4.154716315185709 -9.697857546106471 0 0 0
192 0 1 18.722275322244737 4.337751304297591 -8.935881398370812 0 0 0
199 0 1 19.06759609953403 1.678352829382706 -10.70184506593708 0 0 0
198 0 1 19.375690059466194 2.593718377696128 -10.589380390563715 0 0 0
45 0 1 -21.668396503209056 14.984582308039977 4.488881101161466 0 0 0
46 0 1 -21.07701915019139 14.940151787591974 5.239730539419455 0 0 0
47 0 1 -21.626851475815812 14.415666219234595 5.813184442558762 0 0 0
48 0 1 -22.14022446810357 14.960163868041457 6.425669131894511 0 0 0
43 0 1 -21.290945221053995 16.63685859434711 3.9586180947019773 0 0 0
44 0 1 -21.16717178040828 15.820154467843164 4.454569095760339 0 0 0
42 0 1 -20.511099498282388 16.062185305629598 3.6446818862142347 0 0 0
38 0 1 -22.286356848429836 17.74723091524508 3.9868519641578937 0 0 0
34 0 1 -20.503795713324383 19.729486542729592 5.634843317567759 0 0 0
37 0 1 -21.790759367745032 18.57328767564765 4.050378070116548 0 0 0
36 0 1 -20.95786761417001 18.75746476185985 4.529723437041532 0 0 0
35 0 1 -21.32295549852451 19.457770612572308 5.134955040554124 0 0 0
1 0 1 -20.957268900463667 13.811810909276126 7.069636794269731 0 0 0
2 0 1 -20.444189127175736 13.525136816079 7.801534356767535 0 0 0
50 0 1 -20.97533731032618 14.746656148354335 7.3019953335983 0 0 0
49 0 1 -21.586370990605353 15.435945604130275 7.013373870879312 0 0 0
41 0 1 -20.833894885390933 16.71029043108172 2.9712519899545096 0 0 0
39 0 1 -22.32319999119092 17.005609992115954 3.417655196671759 0 0 0
40 0 1 -21.5972136730126 17.372472799877407 2.951407504942083 0 0 0
33 0 1 -19.472312880050108 19.75390478553339 5.573424072562927 0 0 0
31 0 1 -20.12840238865999 19.79202375211331 6.857388106176803 0 0 0
32 0 1 -19.476672328407275 19.296323269363526 6.3917860687504 0 0 0
3 0 1 -20.767237441980363 12.678899540444036 7.508229498530175 0 0 0
5 0 1 -21.705270180370682 11.182607941823095 7.80569903012932 0 0 0
4 0 1 -21.47009290884081 12.070641712285568 7.4870582745229814 0 0 0
15 0 1 -22.058658153095962 15.493017661867146 8.394692153275132 0 0 0
29 0 1 -19.356166068000853 19.498558031041163 8.231519889142412 0 0 0
30 0 1 -20.138643807225726 19.22305876094778 7.700280980347071 0 0 0
8 0 1 -21.789002324614277 11.384253976907214 8.875383647789395 0 0 0
10 0 1 -22.371077341676774 12.686080928256255 8.412639922557133 0 0 0
9 0 1 -22.08591321769484 12.278605357033543 9.27801092901036 0 0 0
7 0 1 -21.169856682550986 10.774047318824879 8.550103496811193 0 0 0
6 0 1 -20.880490363214907 10.765626811693275 7.5957736948958265 0 0 0
13 0 1 -21.90963635312071 14.129291956051183 7.6506621979161675 0 0 0
14 0 1 -22.564881059128567 14.759051035444712 8.105864612073564 0 0 0
17 0 1 -21.563463154662976 16.374501020131206 9.194813487693796 0 0 0
16 0 1 -21.144459776765757 15.683193614209259 8.668149656106468 0 0 0
28 0 1 -19.182795279289994 18.55078413198151 8.313560420190145 0 0 0
23 0 1 -18.73686248664894 15.689648204094192 9.764638133341078 0 0 0
26 0 1 -20.16015408852853 17.629072494855787 8.390432008425147 0 0 0
11 0 1 -21.708865037164234 13.15555418492697 7.944417154874665 0 0 0
12 0 1 -22.312723375860166 13.346718908837932 7.226898102555731 0 0 0
18 0 1 -20.548461711175168 16.615871757408634 9.160693042252513 0 0 0
19 0 1 -20.659082913041512 16.004729786946484 9.848291703604868 0 0 0
20 0 1 -20.428050064996505 16.249433304234636 10.678741098673505 0 0 0
21 0 1 -19.919616105275008 15.488914901686467 10.383986946484388 0 0 0
22 0 1 -19.309404682684093 14.922202194323777 9.874425914914251 0 0 0
24 0 1 -19.07885025319995 16.165457542886916 9.004583302588667 0 0 0
27 0 1 -19.33643968725457 17.73557495000726 8.8326762936707 0 0 0
25 0 1 -19.701035114782965 16.770174280122706 8.422384423813181 0 0 0

Velocities

168 0.34200246461970335 0.8061421346452704 -1.9475010908485486
162 -0.84948699584332 -0.43819604397989714 0.35549986621270796
169 -1.1060072782775685 -0.5039239891994416 0.8482452491000183
170 -0.6410085445801287 0.25739276929699034 0.052873001367796296
163 -0.9113966406846346 2.546831167968895 -0.4337253243683673
164 1.1608378347665065 -1.1424739084056876 -1.6180425724914935
165 -1.2334432450504182 -0.17187991251219778 0.3883666833170391
166 0.5026335948891345 1.6613864175097108 1.2507079019961949
167 -0.09213024659359739 -1.2227678797479054 0.43297228913986746
161 -0.08895731668579276 -0.3850964857096034 0.09351906647021857
160 -0.5830554403732924 1.343064930257367 -0.643452207016001
159 0.9670468311516208 0.17595373894764463 -0.48073556697777126
171 0.07119838549721305 -1.7219540110962717 1.3225347365246727
172 -1.290701164571301 -0.4363290535064951 -0.39739018450122526
173 -1.8531813812541873 -1.5556378535773465 -0.8671521872721671
174 -0.4895051711375194 -0.6041490020163572 -0.9563540862403118
175 -2.2449207966295646 -0.8255797135437108 -0.5429764750635997
158 -1.2868174615019858 0.5512135391714075 -0.18213044859359384
157 -0.9089328632336823 -0.2862170300239242 -0.5890436332746198
156 -1.0947547434333 1.3426894420101834 0.08910315812570266
179 1.037539711045168 -1.4810390627690386 1.0937015498678884
178 -2.185350061219917 -1.4873784729198152 1.4471725878769874
176 0.17634444463681204 -1.0806302809957598 0.32695096156341613
177 0.399474588018885 1.2269675840013192 -0.026139626701785566
155 1.2562968359825053 0.7233974405920195 -0.9569842158191716
154 0.45361570450686445 0.06330725231759532 -1.9003969837771053
181 1.1336002311519964 1.3978281780548834 0.8977537138679319
180 -1.808464191290081 -0.9819591014167388 -0.09747310534929296
153 0.526630829121618 -1.6462141678168354 1.2845294391401603
152 -0.004360714601376964 -0.7652369816353974 -0.9130087244622691
184 0.8876918503030875 -0.6060438910474779 -0.40260147703637394
185 -2.0998660105471485 1.124605944128017 1.4953454955931864
183 -2.9818982682784743 -0.9482810560953107 -0.5460983863117996
182 -0.6292306771437385 -0.00490563754821724 0.6537836038408931
200 0.2642317619488652 -0.4016970566776022 0.29040849358520987
151 0.31465220866881494 -0.6890735781957898 -0.8104904947827717
186 -1.605508977942935 1.409261795059222 0.2195363409111581
187 0.15884881497896525 0.034568308445638074 -0.2565255409722758
191 0.2881223123042019 1.360011017494039 1.7621120515111763
189 0.9637778850278741 -0.07883754602352111 -1.92797694840848
190 -0.5211690348301007 -0.6462967320913138 0.40994442106204243
188 -0.7973720534848091 0.21799178512836317 -2.1018060324260315
194 -0.10895420677941553 -0.7546383651854349 -0.4403732753557133
196 0.4904960239027172 -1.8611413314758392 0.09869600278858125
197 0.5734223105676532 0.6091000077244277 0.9943306521584383
195 2.25094028980423 -0.09513426329946656 -0.5801679687792741
193 1.0851904105720296 1.1112693383384455 -0.14952430147011783
192 -0.8567592070008718 -1.936282449768538 -0.3880429645821072
199 1.517446209629876 2.0164382668156304 0.7291520376798012
198 0.23664437353038079 -0.8521782853171639 -0.787826205357376
45 0.6560755711889193 0.7480196104826913 0.21638700545504197
46 -0.8219095842701473 -0.9367872452863037 -0.03357225621989354
47 -0.19895897228220027 -1.9879777710057187 0.8002156595003029
48 -0.05773365858785565 -1.2125166390062183 1.1350200014955916
43 0.30964104236040185 1.3069697319203772 -1.3478604158094498
44 -0.8784608303398657 -0.26301054339427526 -0.9364245204597641
42 -0.010557791024886534 0.2238845156610462 0.1712883973976702
38 0.20734280171983022 0.8637173255222677 -0.4300242900719263
34 -0.5526005436723331 -0.016584646794785385 -0.2716111162698653
37 0.48230949055717864 -1.8613431948814154 2.1928231551854855
36 -1.0215606032652942 0.2832273684729036 0.01612021961212924
35 -2.2892636326421885 0.4190687375390191 0.0924966617024581
1 0.61800630157748 0.7899637532627793 1.0599888461467386
2 0.9565941512689247 -1.205185893312583 0.024118312445001316
50 -0.5440584547067121 -1.251623127425075 1.1057840274480668
49 -1.2364509778378119 -1.3209713435490682 1.5589021309950728
41 1.6094768586372676 0.1546107828093993 -2.0237512130699113
39 -0.7641879549702953 0.2640691458543497 0.3549848612037249
40 0.021794201054004314 0.025680192845308286 -1.2995921981053609
33 -1.3710868290323572 -0.30807880436464075 -1.237066044496768
31 -0.880623768886725 -0.015186272454557765 0.0682225090955266
32 -0.7994387313185554 -1.0631342569961635 2.072913405802982
3 -1.4332637195407607 0.05757177958236706 0.914405975276145
5 0.23917256850026075 0.5660862312195664 2.6634033141291815
4 1.2140083763157157 0.20289156332689762 2.075282090313138
15 -0.07012159269969286 -0.5591111727771302 1.3728799664536442
29 -0.1693947612639452 0.8830472877197638 0.4673734044227178
30 1.4829132397057119 -0.9928553519808302 -0.15377722347274989
8 -0.9642272443512149 0.9003842101087289 0.37261147780920606
10 0.5759094591890352 -0.8861406585158096 1.732863438636828
9 -1.8712453414631227 -0.8713933424827868 0.5362488512241524
7 -1.7433409346118407 2.444636397783185 -0.7600957308623479
6 -0.813806137844233 -0.16982769403917153 -1.0820947874269204
13 -1.3551724321020304 0.9447241436571894 -0.6739285163424761
14 -2.5260654571056134 0.05980653938819133 2.793332075931308
17 0.5864186212601579 1.5098981179387698 1.6623266453843157
16 1.508240119962529 0.24956820571275326 -1.6303022756190684
28 -1.678817224400208 0.874933608465811 0.36428223781014624
23 -1.5883455780323394 -1.1988349676155252 0.18948539912793605
26 -0.9295877456535245 -0.5711658756724047 -0.9511986625072645
11 0.5049713092775523 0.09207481316805685 -1.0282599357051558
12 -0.7546337292731735 -1.6719439899003194 1.1891980434087468
18 0.2329161512713197 -0.5264700791969061 -1.2233678868611328
19 0.0006127876252508963 0.014921195069001136 1.2617197987322182
20 0.9548821623662553 -0.8526098522965225 0.4624079193088474
21 -0.9990470924099033 0.02990481866182474 -0.9683706713899202
22 -1.6747536674351544 -0.4967588781826752 0.09673204372789032
24 -1.027300405783552 -0.6141148223930425 -0.802599140195415
27 0.7239079807314343 -0.9980663267809053 -1.579077546131697
25 0.8967623173630808 -0.256169491364645 0.5768083131834806

Bonds

1 1 168 169
2 1 162 163
3 1 169 170
4 1 170 171
5 1 163 164
6 1 164 165
7 1 165 166
8 1 166 167
9 1 167 168
10 1 161 162
11 1 160 161
12 1 159 160
13 1 171 172
14 1 172 173
15 1 173 174
16 1 174 175
17 1 175 176
18 1 158 159
19 1 157 158
20 1 156 157
21 1 179 180
22 1 178 179
23 1 176 177
24 1 177 178
25 1 155 156
26 1 154 155
27 1 181 182
28 1 180 181
29 1 153 154
30 1 152 153
31 1 184 185
32 1 185 186
33 1 183 184
34 1 182 183
35 1 151 152
36 1 151 200
37 1 186 187
38 1 187 188
39 1 191 192
40 1 189 190
41 1 190 191
42 1 188 189
43 1 194 195
44 1 196 197
45 1 197 198
46 1 195 196
47 1 193 194
48 1 192 193
49 1 199 200
50 1 198 199
51 1 45 46
52 1 46 47
53 1 47 48
54 1 48 49
55 1 43 44
56 1 44 45
57 1 42 43
58 1 38 39
59 1 34 35
60 1 37 38
61 1 36 37
62 1 35 36
63 1 1 2
64 1 1 50
65 1 2 3
66 1 49 50
67 1 41 42
68 1 39 40
69 1 40 41
70 1 33 34
71 1 31 32
72 1 32 33
73 1 3 4
74 1 5 6
75 1 4 5
76 1 15 16
77 1 29 30
78 1 30 31
79 1 8 9
80 1 10 11
81 1 9 10
82 1 7 8
83 1 6 7
84 1 13 14
85 1 14 15
86 1 17 18
87 1 16 17
88 1 28 29
89 1 23 24
90 1 26 27
91 1 11 12
92 1 12 13
93 1 18 19
94 1 19 20
95 1 20 21
96 1 21 22
97 1 22 23
98 1 24 25
99 1 27 28
100 1 25 26
