LAMMPS data file via write_data, version 29 Sep 2021, timestep = 10000000

100 atoms
13 atom types
100 bonds
1 bond types

-50 50 xlo xhi
-50 50 ylo yhi
-50 50 zlo zhi

Masses

1 1
2 1
3 1
4 1
5 1
6 1
7 1
8 1
9 1
10 1
11 1
12 1
13 1

Pair Coeffs # lj/cut

1 1 1
2 1 1
3 1 1
4 1 1
5 1 1
6 1 1
7 1 1
8 1 1
9 1 1
10 1 1
11 1 1
12 1 1
13 1 1

Bond Coeffs # fene

1 30 1.5 1 1

Atoms # angle

161 0 1 25.67299692013875 -8.994002348033746 -18.134336166650847 0 0 0
159 0 1 24.3732386175592 -8.915725460476027 -18.013342479840837 0 0 0
160 0 1 25.084359508020874 -8.198032227754982 -18.10031671525162 0 0 0
165 0 1 28.6259768318011 -8.257751526580707 -18.096213195410986 0 0 0
164 0 1 27.83932980839596 -8.787175956301384 -18.277823591244328 0 0 0
162 0 1 26.37334740759255 -9.153537509924293 -17.507805899572794 0 0 0
163 0 1 26.91610469798717 -9.150052997383932 -18.24524685860385 0 0 0
158 0 1 23.593314618781317 -9.361163754069734 -18.34983372691289 0 0 0
157 0 1 23.38120567549741 -8.975199333590723 -17.486291217064323 0 0 0
166 0 1 29.21914218865568 -7.468900362941759 -17.992904982077366 0 0 0
167 0 1 30.080165925628375 -7.08012900733808 -17.91901418555465 0 0 0
154 0 1 23.787194486553393 -9.74561956692569 -15.86141058750141 0 0 0
153 0 1 23.338593802989024 -10.592142207135467 -15.759421265389072 0 0 0
156 0 1 23.49173953550091 -9.737954070822628 -16.84896154344022 0 0 0
155 0 1 24.30925461993463 -10.145552402552761 -16.597348413829778 0 0 0
168 0 1 30.020989496030204 -8.092700873612596 -17.72835276421888 0 0 0
169 0 1 29.56819469171255 -8.883658305980324 -17.34524985781387 0 0 0
170 0 1 30.253136037331082 -9.024851729398135 -16.668678039976083 0 0 0
171 0 1 29.981043779334172 -9.15364005672424 -15.768765343414492 0 0 0
172 0 1 30.767410083654763 -8.691421542641521 -15.632422106319135 0 0 0
180 0 1 27.91355408988221 -6.354677997123679 -15.96877938798157 0 0 0
179 0 1 28.626317497401782 -6.324447797970825 -16.567420513219453 0 0 0
152 0 1 22.475001861968373 -10.996237164279824 -15.594973176066684 0 0 0
151 0 1 21.787698129046632 -11.088969620473735 -14.890001509477434 0 0 0
200 0 1 21.395582709974782 -10.225056642540324 -15.028756368926759 0 0 0
199 0 1 21.75338388337764 -9.925328013516031 -14.206345201835775 0 0 0
193 0 1 23.557324957448603 -6.725735117089008 -14.661077353708079 0 0 0
184 0 1 27.23487993748659 -4.078202347496765 -15.961248984895766 0 0 0
173 0 1 30.007006122887347 -8.1135060243536 -15.686627323846704 0 0 0
174 0 1 30.724994340623898 -7.612444987269182 -15.269943690939714 0 0 0
177 0 1 29.33110639443117 -6.010523768326191 -15.407686632318793 0 0 0
182 0 1 27.856599497446112 -5.101403859830607 -15.432072358540408 0 0 0
183 0 1 28.095642519202347 -4.489454246565891 -16.103370716029183 0 0 0
181 0 1 27.33018792317615 -5.898426733519351 -15.373423988832123 0 0 0
175 0 1 30.341554985223723 -6.722831495260475 -15.52966206631821 0 0 0
176 0 1 30.237059437275455 -5.76025576840696 -15.16905428805117 0 0 0
178 0 1 28.78802825391926 -5.565527891331759 -16.048533119869543 0 0 0
197 0 1 22.695405388105865 -8.521736628239927 -14.95444809338517 0 0 0
198 0 1 22.370505272540868 -9.105403142888374 -14.18812772454432 0 0 0
195 0 1 23.909696166894676 -7.7865650937709425 -14.216251234075642 0 0 0
196 0 1 23.632037686903402 -8.207891269335562 -14.970204765457675 0 0 0
194 0 1 23.973127356109906 -6.946629875539595 -13.749270458254523 0 0 0
191 0 1 24.83749449771463 -6.510064088077623 -15.502200355503797 0 0 0
192 0 1 24.26541456148276 -7.173026491943815 -14.994868095780381 0 0 0
190 0 1 24.724708550758635 -7.342348880918121 -15.953980890059666 0 0 0
189 0 1 25.612798124976127 -7.249260970558018 -16.382806712544856 0 0 0
188 0 1 25.357764809849712 -6.662061254973571 -17.03261659873653 0 0 0
187 0 1 25.771085553921974 -5.919427804040771 -16.542765476016896 0 0 0
186 0 1 25.902367042891314 -5.034166388394004 -16.155681183952098 0 0 0
185 0 1 26.83701113943015 -4.844367091705965 -16.429251486917614 0 0 0
29 0 1 -23.880903678677534 4.961677585327597 1.0513323664420007 0 0 0
30 0 1 -24.192506678181115 5.872480499065051 0.869247731435829 0 0 0
32 0 1 -22.620377918098253 6.417144470656514 1.4322330951245037 0 0 0
31 0 1 -23.259414411486723 5.935365851085288 0.9046289843352703 0 0 0
24 0 1 -27.740848022184128 4.081230473757729 1.310028136436085 0 0 0
25 0 1 -26.769046208802585 4.111839613958661 1.0930328306596173 0 0 0
22 0 1 -28.267634794523172 4.157742716800167 0.39823002331481333 0 0 0
23 0 1 -28.576933084602157 3.642808016632588 1.1637762066480004 0 0 0
26 0 1 -26.117568458272064 4.871911362963596 1.030454744624585 0 0 0
27 0 1 -25.273065818678226 5.2392532514955095 0.8603516238881965 0 0 0
28 0 1 -24.717656876280518 4.5283590012187185 1.0008660558264186 0 0 0
33 0 1 -22.520454962170152 7.139458932981259 0.7620610261741048 0 0 0
34 0 1 -21.66602817070748 6.973606437784682 1.135311202147241 0 0 0
35 0 1 -20.76888415292362 6.700864521594574 1.3034387393863243 0 0 0
42 0 1 -22.194013437676706 10.930712169927304 2.1839730683924787 0 0 0
37 0 1 -20.643323388626264 7.827521541537001 1.50470419601033 0 0 0
36 0 1 -20.148698085993527 7.273430069545756 0.8787918615245285 0 0 0
38 0 1 -20.78806934773346 8.716800724250234 1.8038820185279325 0 0 0
40 0 1 -21.912052038607932 9.438150519214922 1.5938177147772121 0 0 0
41 0 1 -21.630858126362178 10.352657152943706 1.6917089423326404 0 0 0
18 0 1 -27.45324338114109 7.129286128843722 1.0739871619312988 0 0 0
20 0 1 -27.993085766824674 5.5040964432638235 0.9917987522744908 0 0 0
19 0 1 -27.531403199271836 6.243470881664804 0.7402960368335371 0 0 0
21 0 1 -28.639732078694966 4.8055824465517 0.9815661496236276 0 0 0
15 0 1 -25.53471448304024 8.124499698465543 1.383563664990313 0 0 0
14 0 1 -24.85204910657883 7.724890887109753 1.85776872194741 0 0 0
17 0 1 -26.70235475362339 7.7291031381839 0.8141558459135155 0 0 0
16 0 1 -25.980954361423123 7.197686681033526 1.016960419852469 0 0 0
43 0 1 -22.890098222557842 10.331920506486655 1.8926577354685168 0 0 0
45 0 1 -23.33328146427726 9.573500485920677 3.1512287489700754 0 0 0
44 0 1 -22.856226089530676 10.365240246025028 2.8214831330973973 0 0 0
39 0 1 -21.543727471228998 8.890390532309716 2.3210845585181015 0 0 0
46 0 1 -22.713142353020707 8.878548645881958 3.5045946597048294 0 0 0
47 0 1 -23.361871549565496 8.70891234324888 4.1976062093597015 0 0 0
13 0 1 -24.111514045294385 7.709573599086195 2.455301044996872 0 0 0
11 0 1 -24.643024938317048 6.9546048431645575 4.067569803441144 0 0 0
12 0 1 -24.110066055078953 7.386884406993532 3.3378809380911076 0 0 0
5 0 1 -22.17758813738045 8.346036252723643 6.328619079719822 0 0 0
3 0 1 -22.373834388872588 9.227068815929833 4.742448570920632 0 0 0
2 0 1 -22.330129494485405 10.00143268178303 4.155758630541652 0 0 0
50 0 1 -23.061702924340807 10.9119708082348 3.826018024328282 0 0 0
1 0 1 -22.19287465212901 10.58033701949347 3.4660882074388386 0 0 0
48 0 1 -23.353761888805245 9.677165752179965 4.1808091571302315 0 0 0
49 0 1 -23.74235965330242 10.563084705074363 4.377124966010342 0 0 0
10 0 1 -24.243551557695838 7.50850096155791 4.734796807953528 0 0 0
9 0 1 -23.557124185543664 6.836096852733097 4.966042490775078 0 0 0
8 0 1 -22.63861397153807 7.073260136588005 4.756583666166928 0 0 0
6 0 1 -22.23045878419825 7.459732258770305 5.903616990365803 0 0 0
7 0 1 -22.064754615939282 6.6333360174067515 5.384328252643961 0 0 0
4 0 1 -22.09726272503304 8.941695276697134 5.605605245192628 0 0 0

Velocities

161 0.4762936145127995 -0.7461789826730658 -0.6866497154204496
159 -0.9307385490851812 1.9696691145112921 1.1079305760259783
160 0.5103240721977202 0.44917236125998056 0.8314124780419156
165 -1.2289222351730462 -0.5530296082561724 -0.198600242567963
164 -0.21818384210594846 -0.42990914477000103 1.121284474879906
162 -0.5330569794255219 2.020496544911923 -0.3880953404931188
163 0.2826591714783148 -0.8718804646225861 -0.0201533114016495
158 -0.5062541520454248 -0.837104689429943 -1.9363178614278205
157 -0.3646708252589266 -0.23121517432892863 -0.4217816854997046
166 -1.9858761726007321 -0.3994083200261724 -0.2663022235003679
167 1.430901272274395 2.0343455574179514 -1.6589929316142846
154 -0.11018780966748355 -2.4869247837236164 1.1207491550074091
153 -0.21499613965693817 -0.4265907539494619 -0.18337864434732962
156 0.7348476445416456 -1.1049264415179345 -0.7414025460147359
155 -1.769948489869233 -0.5540027310779674 0.48361693410048506
168 -2.016414941601757 -0.5639097507991857 1.1362516272873402
169 -0.6618023771561572 -0.12312663116459288 0.35043115746487197
170 -1.4702341380177695 -0.007591112386011871 -0.308368665603891
171 0.29960773149714104 -0.1708146308441095 -2.774998491682876
172 -0.6037309405244892 0.7027610014653256 -0.9439807777590311
180 -1.4510920670894334 -0.9384524982860358 0.16590912687847534
179 -0.4747216014149168 -1.555309950174788 0.31817214998286897
152 -0.1901013680195961 -0.001756541568729536 -0.6738957885183282
151 -0.1554458261527052 0.7327679861960357 1.0932714657381364
200 0.6623340941168939 -1.6098491485753712 0.702116133009659
199 -0.004794218781855639 -0.49538040037660386 -1.3904622584967588
193 0.9115447240297508 0.2643698511034812 -0.9617248361083306
184 -0.5742063681678127 0.13263741380474484 -0.4089787404789996
173 0.31741704711526375 0.7099344960050169 0.15654953978062405
174 1.5109257438696144 -0.6458541603981592 0.05467499521928952
177 -0.9287470161484741 -0.053847583977490995 0.9592957856048385
182 -1.0784955278254271 1.3093441455545374 0.5354711424427725
183 0.011511669076891759 0.7029880573566601 -0.7172323398846074
181 -0.36418845892752666 -1.4158329253445185 0.6709532001418527
175 0.6132697468534808 -0.665019662129249 -0.7960437034488945
176 0.6748736040032944 -0.39375126267133564 -0.3718376681368919
178 0.0032408895095364793 -0.5926834496077745 0.6373271644386002
197 -0.8778363996202433 -0.8618825839788967 0.371699664427179
198 0.2965390474710417 1.7472712881739654 2.223758840775059
195 0.14185945460657462 -0.3762403322483332 -0.6507318443855268
196 -1.8459393872164844 -1.0671983732014347 0.21448281890943222
194 -1.0891781008885468 -0.20585348772438916 1.3818687414713915
191 0.8618365429795297 1.087354226889626 0.41474231107068704
192 -0.9000912892319618 0.6856164692339273 -1.5828808363719862
190 1.767001975575474 -0.4049143670784297 0.009049912073913917
189 0.27143135506225635 -0.24996671673575865 -1.4285253885605282
188 -0.013066267354404831 -0.2959482144126005 0.5115201665540197
187 1.5796476228009375 -0.0038694326278078117 0.23476497574489577
186 -0.161962916818951 0.34855166599637916 -1.6274351968626193
185 -1.8477294040680385 0.8111920451155765 -0.07523422302346726
29 2.2822681311049835 0.44836927824622674 0.11238138681995849
30 -1.4665541372829427 0.7543229249426638 -1.5371088952591407
32 -0.3833647158878193 0.2723904681486855 0.14709879213466098
31 0.17474246924955916 -1.4469905862404797 2.8091580717881084
24 1.654729632774341 -0.5472787467994762 -2.2433606323033812
25 -1.9945936059066598 0.9343442092142449 0.2699346851026577
22 -0.11739943828262459 0.00037492154059392754 0.8850745895540315
23 -1.3470791707332066 0.4252895495639756 -0.937397950294981
26 -1.7212686107592496 -0.5264243359347127 -0.7477319320265587
27 -1.5478602502373824 1.4335580409804316 2.2608389639779074
28 0.0751738071884934 0.007943924107591704 1.0020145492934127
33 0.023226277994819855 -1.1313434240062048 -0.32268510276297274
34 0.4419610835074469 -1.1324243932027884 0.17488502088342633
35 -0.3213506847118096 0.4655954875748456 -0.6367856367713289
42 -0.5328983905747641 -0.7226717089059889 1.5004886560605855
37 -0.18090690431081835 -1.2854490901958204 1.16807734687794
36 -0.5025181684511452 -0.05178988695639725 0.8167331300195968
38 0.11903279762630714 -0.390320402628918 0.2145442116662749
40 0.7273999926437108 -1.1590446497909483 -0.9922013461899104
41 -2.4981019549060273 -0.7005964352686513 -0.21393160896562283
18 0.7443453176740371 0.7360125449319359 1.800298744795699
20 -1.9410774331800507 -1.0929537989407339 0.665792439602487
19 -0.9603395330542799 -0.6327199006040691 -1.4059325508530367
21 1.7285214862924438 1.2930973462096669 1.3193519403715168
15 -1.5047542385308286 0.573740762333003 0.9451066079981212
14 -3.2656921661454 0.9411836184338485 0.4190109281448674
17 -1.6092085859610958 -1.4638433478490138 0.7685510723831255
16 0.5480242998101585 -0.8636334891920818 -1.1251193901999266
43 -1.156318155596836 0.3082004197987897 -0.54117784245817
45 0.22250750495414728 0.7159588674144943 -0.504118566021328
44 -3.179724360580235 0.9110206190379804 1.24513477374957
39 0.6665701686223007 -0.04755261018468915 1.2037634939946238
46 1.3058968537837776 0.2521645584694474 0.4922223933512365
47 -0.06371144792187752 -2.542340469633313 0.3897163098431369
13 -1.761255395642753 -0.35013792966065566 0.5729284836302917
11 -0.038391791077191956 0.6277554053765045 0.3842827318968904
12 1.8908494739982196 0.08347635898248928 0.3533999941202882
5 -1.2795807841207592 -0.1639473801136602 0.38601399268547165
3 0.9149176595460741 -1.4332239515565632 -0.2649026157654184
2 0.7553803141414268 -0.7637833586182167 -0.9029880837818391
50 -0.2413927156934197 0.6441653504474505 -0.8320785191969254
1 -1.0614103289748584 -0.48688081358370466 -0.1502674642528697
48 -0.19955422215018645 -0.14314797419008696 1.1862036514378318
49 0.387488404620362 0.18235754036349514 2.0701294746240033
10 -0.8905913496077253 0.759714296561529 -0.051206715616938486
9 -0.7160825975496374 -0.6964019198473483 -0.39057359994647617
8 -0.35242914781813084 -1.6408918102464256 0.8983869682169591
6 -0.5471423505989176 -0.7876216416110082 -1.0012864553488112
7 -0.1798949479549114 -0.032873276963313214 -0.5488654535225123
4 1.6553520237957013 1.2670486745481468 0.05584871386206364

Bonds

1 1 161 162
2 1 159 160
3 1 160 161
4 1 165 166
5 1 164 165
6 1 162 163
7 1 163 164
8 1 158 159
9 1 157 158
10 1 166 167
11 1 167 168
12 1 154 155
13 1 153 154
14 1 156 157
15 1 155 156
16 1 168 169
17 1 169 170
18 1 170 171
19 1 171 172
20 1 172 173
21 1 180 181
22 1 179 180
23 1 152 153
24 1 151 152
25 1 151 200
26 1 199 200
27 1 193 194
28 1 184 185
29 1 173 174
30 1 174 175
31 1 177 178
32 1 182 183
33 1 183 184
34 1 181 182
35 1 175 176
36 1 176 177
37 1 178 179
38 1 197 198
39 1 198 199
40 1 195 196
41 1 196 197
42 1 194 195
43 1 191 192
44 1 192 193
45 1 190 191
46 1 189 190
47 1 188 189
48 1 187 188
49 1 186 187
50 1 185 186
51 1 29 30
52 1 30 31
53 1 32 33
54 1 31 32
55 1 24 25
56 1 25 26
57 1 22 23
58 1 23 24
59 1 26 27
60 1 27 28
61 1 28 29
62 1 33 34
63 1 34 35
64 1 35 36
65 1 42 43
66 1 37 38
67 1 36 37
68 1 38 39
69 1 40 41
70 1 41 42
71 1 18 19
72 1 20 21
73 1 19 20
74 1 21 22
75 1 15 16
76 1 14 15
77 1 17 18
78 1 16 17
79 1 43 44
80 1 45 46
81 1 44 45
82 1 39 40
83 1 46 47
84 1 47 48
85 1 13 14
86 1 11 12
87 1 12 13
88 1 5 6
89 1 3 4
90 1 2 3
91 1 1 2
92 1 1 50
93 1 48 49
94 1 49 50
95 1 10 11
96 1 9 10
97 1 8 9
98 1 6 7
99 1 7 8
100 1 4 5
