LAMMPS data file via write_data, version 29 Sep 2021, timestep = 10000000

400 atoms
2 atom types
404 bonds
1 bond types

-50 50 xlo xhi
-50 50 ylo yhi
-50 50 zlo zhi

Masses

1 1
2 1

Pair Coeffs # lj/cut

1 1 1
2 1 1

Bond Coeffs # fene

1 30 1.5 1 1

Atoms # angle

126 0 1 34.45432746206981 36.92833708978006 -22.465261371046626 0 0 0
163 0 1 28.5029047884075 31.09274832462281 -21.45379386678265 0 0 0
164 0 1 28.672055079969983 31.54581212797503 -20.61519526467425 0 0 0
127 0 1 34.83551777599929 36.06964146159195 -22.65036027452391 0 0 0
128 0 1 35.747988507436474 35.91284541262638 -22.524399374434946 0 0 0
125 0 1 34.77557827552959 37.6386141340602 -21.93019413330745 0 0 0
123 0 1 35.00461648340318 38.91101805901801 -23.097832084539053 0 0 0
124 0 1 35.19124298815218 38.19635585873763 -22.514907395794438 0 0 0
122 0 1 34.8188617314497 39.798796567528186 -22.775730049716802 0 0 0
168 0 1 26.232602861937966 30.615521411597534 -20.387548318349822 0 0 0
161 0 1 29.95162719140848 31.29185383913936 -22.083524503629967 0 0 0
167 0 1 26.696211818441704 31.174517488831917 -19.740901188027383 0 0 0
166 0 1 26.963446562275365 31.648242353397848 -20.57216797976483 0 0 0
162 0 1 28.967229185912004 31.455899540829208 -22.237583471763326 0 0 0
165 0 1 27.81871759862364 31.295764400625508 -20.312400418712922 0 0 0
160 0 1 29.95671121447389 30.727369689934257 -22.806842848411513 0 0 0
137 0 1 35.955020261030754 33.075274633631274 -23.31157626672965 0 0 0
134 0 1 36.571056439135894 34.88911048268805 -23.507824434774403 0 0 0
136 0 1 35.918918687171896 33.96145880786753 -23.0570007161346 0 0 0
132 0 1 38.01462358977002 35.9678114754457 -23.06459242451434 0 0 0
133 0 1 37.39649286230334 35.33918447985099 -23.38871676830994 0 0 0
129 0 1 36.6229991379644 35.90628400071764 -22.905754513548118 0 0 0
130 0 1 37.29533587973053 36.540389799319335 -22.59588706341827 0 0 0
120 0 1 34.893234641120735 40.02853982142263 -21.180508868117776 0 0 0
121 0 1 34.655421328028844 39.45563786490604 -21.938775070020935 0 0 0
196 0 1 33.06894147168048 28.112232089793178 -17.360866656817993 0 0 0
170 0 1 25.804297172689285 30.655200454223184 -21.99871590852143 0 0 0
169 0 1 26.523753685070233 30.609680151041136 -21.346929196640147 0 0 0
159 0 1 29.424815484984368 30.163757361354076 -23.338775961744105 0 0 0
157 0 1 29.72572710344848 28.761191544572807 -22.832380989841447 0 0 0
158 0 1 29.312975845062315 29.22954362942788 -23.614219994176253 0 0 0
156 0 1 29.788029922517946 29.705228757070532 -22.427287369252337 0 0 0
147 0 1 31.498615610383965 33.99542012562443 -20.931521665797245 0 0 0
148 0 1 31.72083104625476 33.06105896944481 -20.81982831019933 0 0 0
146 0 1 32.438114834445365 34.03557905999679 -20.57660196386978 0 0 0
138 0 1 36.34381942282563 32.58039184907154 -22.60364023900031 0 0 0
143 0 1 34.25920043148558 32.19092340215295 -20.98548429925633 0 0 0
145 0 1 33.01650142673078 33.547254090497155 -21.144494692179258 0 0 0
135 0 1 36.10064805568652 34.228234300785324 -23.97481690154941 0 0 0
142 0 1 34.30826936569993 31.638686896115352 -21.773171881497998 0 0 0
141 0 1 34.75651063404815 30.818246889432643 -22.016630754550146 0 0 0
139 0 1 36.18209754787537 31.961136499467536 -21.86665434685257 0 0 0
140 0 1 35.450097385767954 31.45669656848867 -22.153484838798686 0 0 0
131 0 1 38.17278041319478 36.87010952199981 -22.867297841354436 0 0 0
85 0 1 40.20814701923193 37.140673273711805 -20.781614551614425 0 0 0
84 0 1 40.79757438109923 36.33500504180827 -20.752919190584812 0 0 0
83 0 1 41.678815096625314 36.613693177747784 -20.95988161660351 0 0 0
81 0 1 42.54386408150312 36.01950559404232 -19.236851291801983 0 0 0
82 0 1 41.99664395162563 36.3032072226115 -20.058419073442256 0 0 0
86 0 1 39.33825997501837 36.58603807524278 -20.757711935754095 0 0 0
119 0 1 34.28345125960256 40.58481533307382 -20.725670618377748 0 0 0
97 0 1 41.00576637488422 37.69999817732543 -19.99859216586644 0 0 0
98 0 1 41.22738151597359 38.58426313893648 -20.284217444283595 0 0 0
99 0 1 40.62376476962694 39.190592904892625 -20.563593502749683 0 0 0
100 0 1 41.42346612752105 39.38185561052312 -21.005065643599842 0 0 0
198 0 1 33.152740222837814 28.845401997429924 -19.113906662205203 0 0 0
195 0 1 33.16541925433594 27.496765064496547 -16.62521106003002 0 0 0
197 0 1 33.164544942491865 28.256039585045254 -18.299509930242866 0 0 0
194 0 1 33.947989536322325 27.02163138542304 -16.35004457502942 0 0 0
176 0 1 27.941773848793535 28.460078553795046 -19.19531810574896 0 0 0
199 0 1 32.733339422452225 29.730632222462475 -19.38914898815983 0 0 0
153 0 1 31.097992869046173 30.2241394762498 -20.55849594909582 0 0 0
171 0 1 26.182972081004714 29.792510058319223 -21.769325627124324 0 0 0
172 0 1 25.933899640485887 28.88805772079362 -21.598761150818536 0 0 0
173 0 1 26.552752802538443 28.784575415440635 -20.828715288141936 0 0 0
174 0 1 26.749678359374954 29.356408575018353 -19.992210240373154 0 0 0
175 0 1 27.364416473587085 28.557848697275634 -19.923690077031853 0 0 0
155 0 1 29.49593242467539 29.760032765927466 -21.504144744415512 0 0 0
154 0 1 30.167429294430477 30.333951931792512 -21.03596077668895 0 0 0
152 0 1 31.14429568171185 30.792404244683578 -19.741438678390296 0 0 0
151 0 1 31.728882829254584 31.15197674677753 -19.076302198476746 0 0 0
150 0 1 31.346641518497147 31.996708158620894 -19.35169319073034 0 0 0
149 0 1 31.17352642301396 32.558625414201074 -20.14190928800892 0 0 0
13 0 1 30.720576940691135 32.68188254543383 -18.229431648128227 0 0 0
14 0 1 30.929993119809687 33.393720057162184 -17.641760038835073 0 0 0
15 0 1 31.85115988179231 33.646185837272526 -17.62535079557349 0 0 0
17 0 1 31.834578622345607 34.88964511901789 -16.693726626106375 0 0 0
144 0 1 33.55213913090837 32.69851904188995 -21.442571548885955 0 0 0
79 0 1 42.932706862553275 34.88405073257649 -18.594431393813544 0 0 0
80 0 1 43.33907345594673 35.43324313285453 -19.29736241861461 0 0 0
87 0 1 38.844590860326704 36.30398410700182 -21.57619231124969 0 0 0
88 0 1 38.326287201714656 36.70137314822661 -20.923915791311718 0 0 0
89 0 1 38.25966313249065 37.49238987398096 -20.35760102019251 0 0 0
90 0 1 38.323937103001256 37.042984172420226 -19.459801354325716 0 0 0
91 0 1 38.231173818364766 37.10164389592347 -18.534314208564208 0 0 0
92 0 1 38.62464957120952 37.92603196698235 -18.86566902467258 0 0 0
118 0 1 33.78670932543072 41.312192016683014 -20.345158568187493 0 0 0
116 0 1 35.10130037648791 42.45600448882517 -20.89890650903737 0 0 0
94 0 1 39.841079674566664 37.91081713427376 -18.911755274822223 0 0 0
95 0 1 40.633054855939704 37.321390057714 -19.02999395490225 0 0 0
96 0 1 41.18389529108574 38.1317704586975 -19.12457215935227 0 0 0
101 0 1 42.37701985145144 39.30669229779242 -20.993366505586238 0 0 0
117 0 1 34.26340285774283 42.085005665759155 -20.615389409547955 0 0 0
115 0 1 35.18755758241953 43.34308954029565 -20.372465341563032 0 0 0
110 0 1 36.73622550245401 41.375322411013755 -19.114936219453796 0 0 0
102 0 1 42.20493278822464 40.167303333297475 -20.58843485103695 0 0 0
103 0 1 41.4523173739568 40.7490478045607 -20.80260965280109 0 0 0
109 0 1 37.53432203542 41.89374796236147 -19.185730011853558 0 0 0
108 0 1 37.707527963763496 41.06480979892856 -18.689895015999067 0 0 0
107 0 1 38.22911435940176 40.640668301235756 -19.330922538146414 0 0 0
106 0 1 39.16195666251892 40.58415050896634 -19.57955671310777 0 0 0
182 0 1 30.324522005278595 26.894085070450828 -17.87979599678171 0 0 0
181 0 1 29.550549189601174 27.217380984317337 -17.40164656117722 0 0 0
183 0 1 31.11372790833514 26.975517278927523 -18.47944793148474 0 0 0
179 0 1 28.883953805598143 28.880048685917508 -17.793981696820996 0 0 0
178 0 1 28.89834411366502 28.31626910079475 -18.52336065602129 0 0 0
193 0 1 34.720003402667714 27.077276826957213 -15.670150091395534 0 0 0
192 0 1 34.519966463539944 26.572743313532072 -14.834987312132158 0 0 0
177 0 1 28.00222146609682 28.417600697413775 -18.133572219241245 0 0 0
200 0 1 31.975709881619164 30.231292156160997 -19.009961039128054 0 0 0
1 0 1 32.58385835933487 29.89651381897898 -18.290887175148285 0 0 0
65 0 1 40.06479948439469 31.864183681785576 -15.737549340948885 0 0 0
11 0 1 29.903364993528655 31.36705963156778 -18.69837575438695 0 0 0
3 0 1 31.082474757911367 29.467835251102162 -17.115678698109214 0 0 0
2 0 1 31.851039702594036 29.48323888533085 -17.74909219070763 0 0 0
50 0 1 32.712779872528756 30.157945725390334 -17.303082076140605 0 0 0
66 0 1 40.07301915921698 32.817615722360635 -15.552318727982726 0 0 0
10 0 1 30.517379710616527 30.629772716874193 -18.527381848034757 0 0 0
12 0 1 30.489793259169257 31.723455026344272 -18.07586362337894 0 0 0
16 0 1 32.28070681607684 34.039258614811274 -16.803310842269077 0 0 0
18 0 1 30.972427531005366 34.49474753709289 -16.746507297908916 0 0 0
78 0 1 42.09427589920693 34.337301585518595 -18.560098386438014 0 0 0
75 0 1 40.18876760013906 33.4285252375165 -18.917066343352072 0 0 0
74 0 1 39.23237968495622 33.677943733090686 -18.742910755766577 0 0 0
77 0 1 41.18131232777738 34.17467592879625 -18.43824453304982 0 0 0
76 0 1 40.643995126127095 33.43766901750345 -18.095097318393094 0 0 0
93 0 1 39.30196832717104 37.8568979610722 -18.127694343341552 0 0 0
114 0 1 35.7552707269109 42.85509398469776 -19.744831310613634 0 0 0
111 0 1 36.58990114628064 40.788832708193574 -19.861530830898015 0 0 0
112 0 1 36.4562739827057 41.38597394492094 -20.558491007042516 0 0 0
104 0 1 40.68654667789918 40.6946650655353 -20.14336811378951 0 0 0
113 0 1 35.79622354446602 41.92211362506797 -20.07318104491468 0 0 0
105 0 1 39.79663541172623 40.86233897562016 -20.327265142482656 0 0 0
186 0 1 32.29298421386658 26.784334575255638 -16.794093833388956 0 0 0
185 0 1 31.986271675914267 26.9624330467915 -17.635856823951006 0 0 0
184 0 1 31.232571883302327 27.57014181203248 -17.767581772109693 0 0 0
191 0 1 33.60377900825849 26.27601802933342 -15.078448291170806 0 0 0
180 0 1 29.4376014539239 28.220415221926697 -17.336297766756573 0 0 0
190 0 1 33.446970244078344 25.348441132644997 -14.919261254898087 0 0 0
60 0 1 36.43070878291427 31.964907506036017 -14.448136011872968 0 0 0
53 0 1 34.44101113967722 29.602618706188462 -16.435406271818888 0 0 0
59 0 1 36.66299068638989 30.988044914057955 -14.45786738784671 0 0 0
61 0 1 37.32763082659484 32.10348502707616 -14.24466879538065 0 0 0
58 0 1 36.644420217945424 31.37264402641763 -15.355663732238554 0 0 0
62 0 1 37.66343145949712 32.636210020881904 -15.014106981206401 0 0 0
64 0 1 39.1376036079405 31.657278442260885 -15.617860885136274 0 0 0
6 0 1 29.592219678411944 30.043605209714087 -16.029627342725963 0 0 0
5 0 1 30.50620622888414 30.442558039021332 -16.15790901628945 0 0 0
4 0 1 31.16108172099148 29.741258817676805 -16.186658023521964 0 0 0
51 0 1 32.76624995378836 29.950653693570562 -16.37173019801553 0 0 0
49 0 1 32.33567443562456 30.93422785777709 -17.594217956585254 0 0 0
52 0 1 33.689654795273945 30.289886065122445 -16.301215696339163 0 0 0
54 0 1 34.941471849074624 30.477824293536248 -16.370445070903923 0 0 0
56 0 1 35.55555228398585 31.12393530664378 -16.973929993233355 0 0 0
57 0 1 36.07155388239568 31.329575291011945 -16.15490875273725 0 0 0
63 0 1 38.25852579214097 32.109953939666575 -15.530116847741345 0 0 0
67 0 1 39.71743985178323 32.92546098723238 -16.53357309572301 0 0 0
68 0 1 39.724265254057926 33.84465044424567 -16.703300394027497 0 0 0
9 0 1 30.389736185612648 30.81935203977927 -17.603288272445546 0 0 0
8 0 1 29.816077126110038 31.274766822620116 -17.086036273754285 0 0 0
7 0 1 29.343605688589868 30.46712280546358 -16.8327968173175 0 0 0
46 0 1 32.57985366062527 32.91750205046832 -17.642451739343443 0 0 0
48 0 1 32.69627279659573 31.414499611590603 -18.301422023954473 0 0 0
47 0 1 33.01541893850277 32.30182386736678 -18.20354599139784 0 0 0
69 0 1 39.10853560372719 34.53408709314824 -16.5173251684859 0 0 0
70 0 1 38.3351012391829 34.57367008960827 -17.11661496813855 0 0 0
19 0 1 30.984900109484986 34.99744270715235 -15.771360944729524 0 0 0
71 0 1 38.034079289957354 35.33128724121503 -17.63245437975534 0 0 0
21 0 1 29.750384358445064 36.25184236932731 -16.590652110983655 0 0 0
20 0 1 30.388934876478753 35.59967765192912 -16.306996010753384 0 0 0
22 0 1 29.4931068333393 36.70137603507967 -15.770692014857246 0 0 0
73 0 1 38.52298829062666 34.29549985658796 -19.120033015894183 0 0 0
72 0 1 37.97034336746751 34.735799097948956 -18.453286711461676 0 0 0
26 0 1 27.502678718479768 35.996044780670836 -16.35849848749197 0 0 0
25 0 1 28.097494084817942 36.73466157330056 -16.016078510517584 0 0 0
24 0 1 28.580503895327794 36.352848545399084 -15.318190937893846 0 0 0
23 0 1 29.434235769160086 35.970688411224096 -15.099910310928477 0 0 0
187 0 1 32.74367615723183 25.927422299179966 -17.072234273459305 0 0 0
189 0 1 33.43333262770762 25.261136464453184 -15.878657776375197 0 0 0
188 0 1 32.542183480870406 25.35741681364357 -16.305387185603276 0 0 0
55 0 1 35.76297828768544 30.2261737630962 -16.84310131569011 0 0 0
45 0 1 32.688229981724895 32.532599252600264 -16.747769079406957 0 0 0
44 0 1 31.801119929399377 32.63679851470591 -16.420751221177078 0 0 0
41 0 1 30.545283382401838 32.18189863277345 -15.291224540303812 0 0 0
28 0 1 26.134211011075294 35.523009854415044 -15.21723445744714 0 0 0
27 0 1 26.71827685805946 35.95040528586039 -15.767053638923798 0 0 0
29 0 1 26.334769139473277 34.69771889017036 -14.774921972359282 0 0 0
34 0 1 28.10146582975129 34.64451756688955 -13.961565606259796 0 0 0
37 0 1 29.620399804531854 33.22878309438582 -14.502734194262006 0 0 0
35 0 1 28.53546397774781 33.782384202272794 -13.667569004668998 0 0 0
38 0 1 30.460156133229784 33.315385517223994 -14.991237106678245 0 0 0
39 0 1 31.095874294733097 33.58674937601389 -15.603752129810006 0 0 0
320 0 2 -13.373616210689992 3.2086694906734143 -13.341272989940606 0 0 0
319 0 2 -12.884952061168175 2.427349923617265 -13.6378749592169 0 0 0
318 0 2 -13.906169939898817 2.2927377527510813 -13.729149907585219 0 0 0
317 0 2 -13.835668883211357 2.282668244540616 -14.682929757533833 0 0 0
316 0 2 -13.796810846504053 3.2978644402368777 -14.704634565461701 0 0 0
314 0 2 -13.08227639935476 4.503949889276833 -15.164308128184182 0 0 0
313 0 2 -12.329422706005523 5.022167939782799 -14.814331987560633 0 0 0
312 0 2 -12.401703953130655 5.596259582048676 -15.500857669090005 0 0 0
311 0 2 -12.43585900161934 6.554486686357742 -15.436064949869493 0 0 0
310 0 2 -12.808546473704139 6.727290472519444 -14.604132411622704 0 0 0
309 0 2 -11.993601864787106 7.098162528542176 -14.280628546536045 0 0 0
307 0 2 -12.410514824294337 8.4781316191931 -13.0732935027237 0 0 0
42 0 1 30.624867746837403 32.13613987794184 -16.256203411535665 0 0 0
43 0 1 31.1397588337226 32.38153013009303 -17.11333053154036 0 0 0
40 0 1 31.335787452973864 32.69817468216223 -15.27631994830573 0 0 0
30 0 1 26.05207060998452 33.74480218951316 -14.955708492099713 0 0 0
36 0 1 28.66116963320105 33.36292442875334 -14.509997337902277 0 0 0
31 0 1 26.510342793133287 33.71428953559523 -14.146448996557295 0 0 0
32 0 1 26.672568030902937 34.397479034333884 -13.540178224091472 0 0 0
33 0 1 27.30930785082059 35.14599741212922 -13.625836573615702 0 0 0
321 0 2 -13.511359064938471 3.49008305638031 -12.49856790258715 0 0 0
322 0 2 -12.973629476637091 3.089595253393135 -11.758689193779256 0 0 0
315 0 2 -13.695948505463738 3.873347226941356 -15.503697643929318 0 0 0
304 0 2 -11.252823971962734 8.336184353500688 -10.767367265244932 0 0 0
306 0 2 -11.59354069790281 8.39654242865437 -12.550754620462174 0 0 0
303 0 2 -10.536649652696727 9.01236442525423 -10.482287510403625 0 0 0
302 0 2 -11.27899311400506 9.491561255857995 -10.182367775549915 0 0 0
308 0 2 -12.068270010194885 7.923786590206816 -13.811689144427328 0 0 0
305 0 2 -11.462596404274205 8.76724650646031 -11.61612155271953 0 0 0
323 0 2 -12.493881577990921 2.4405938516148864 -11.220110898154331 0 0 0
329 0 2 -16.27662533817928 3.37829742713056 -10.120585306904987 0 0 0
328 0 2 -15.876632079906033 2.982772699473672 -10.800568992179533 0 0 0
324 0 2 -13.476923257715095 2.1723441219944313 -11.347823709176991 0 0 0
326 0 2 -14.828743569455288 2.2557405660489134 -10.81086818894265 0 0 0
325 0 2 -14.315006297490513 2.68395370498043 -11.51534030442787 0 0 0
330 0 2 -16.502186630926975 4.300309127258619 -9.949224141026942 0 0 0
331 0 2 -17.031660281918377 4.9907913077239 -10.329672957804743 0 0 0
327 0 2 -15.289117120249596 2.823207620075891 -10.048244984156778 0 0 0
332 0 2 -17.79457852878271 5.497172079439192 -9.859205898500147 0 0 0
333 0 2 -18.500472223858136 6.024253074698968 -9.446263932439077 0 0 0
337 0 2 -20.396785192220246 6.9788128316718545 -8.949639183087724 0 0 0
336 0 2 -20.20790038666028 6.23724910803243 -8.357356251697192 0 0 0
334 0 2 -18.783701588984798 5.330540794733326 -8.776250560371633 0 0 0
335 0 2 -19.686816800969016 5.468818384456677 -8.549073234411557 0 0 0
301 0 2 -11.243430754144027 10.097413406439212 -10.883058162896544 0 0 0
300 0 2 -12.056328654502327 10.278194513590702 -10.343844246616744 0 0 0
299 0 2 -11.445703987994477 10.689941280066328 -9.715905795266567 0 0 0
339 0 2 -20.3824709381553 7.264686791513048 -7.871475861986938 0 0 0
340 0 2 -20.790106975389893 7.842171947901163 -7.222148005864589 0 0 0
338 0 2 -20.81756447678202 7.796034512163671 -8.547952691311133 0 0 0
343 0 2 -21.754943186848262 9.312440962824153 -6.287559406012893 0 0 0
342 0 2 -20.844987292256857 9.275611650638215 -6.4631036969322455 0 0 0
341 0 2 -21.151308235277423 8.74016573349515 -7.222109894334836 0 0 0
298 0 2 -12.222450823138606 11.221005860629292 -9.69905998770123 0 0 0
297 0 2 -12.796211251203742 11.88053398580975 -10.046271426609911 0 0 0
296 0 2 -13.417851229082418 12.424013105163159 -9.649333188919718 0 0 0
257 0 2 -26.56320791596992 13.386131895176854 -8.211717486326236 0 0 0
256 0 2 -26.51977184213558 14.078328750906433 -8.871558690628577 0 0 0
258 0 2 -26.758529973195003 12.748367906832911 -7.534986407598348 0 0 0
259 0 2 -25.748394358215826 12.637930942120107 -7.438633392631675 0 0 0
260 0 2 -24.986520374098276 11.986655996951152 -7.491205239232892 0 0 0
344 0 2 -22.605516426287746 9.67224731911647 -6.068326602053353 0 0 0
346 0 2 -23.216567526737794 10.35087871256055 -7.260531625543739 0 0 0
243 0 2 -28.31921778117774 11.384250727151246 -7.095578137952347 0 0 0
245 0 2 -27.0348776797182 10.247214805539969 -7.847705508962762 0 0 0
244 0 2 -27.84270218339598 10.64973065466386 -7.5938445304665 0 0 0
345 0 2 -23.389047227386115 9.574720464103278 -6.682250779112493 0 0 0
254 0 2 -25.87603561977846 14.196830712004568 -7.216086864460555 0 0 0
255 0 2 -26.072896261252293 14.433916160684001 -8.09239109730611 0 0 0
261 0 2 -24.700564363302004 12.922508040864914 -7.365986691758162 0 0 0
262 0 2 -23.986276557360938 13.480532926905846 -7.008594978060793 0 0 0
288 0 2 -15.855714365486936 15.62791362155665 -7.079503180259345 0 0 0
294 0 2 -14.693409940879501 13.764516304669105 -9.28453843295686 0 0 0
295 0 2 -14.056707292083363 13.045379004203124 -9.38498326451301 0 0 0
293 0 2 -14.556801080007281 14.60687749522805 -9.00233867339639 0 0 0
356 0 2 -22.109005824675265 6.608520798380952 -3.9388133680565054 0 0 0
357 0 2 -22.85615462849371 5.935687926117125 -3.9745927874181106 0 0 0
358 0 2 -23.469390860561024 6.199649775343053 -4.6726162018788555 0 0 0
347 0 2 -23.99558874435304 9.778593587428537 -7.54976599838771 0 0 0
349 0 2 -24.470189886495387 10.538800986767681 -5.8437001244273095 0 0 0
348 0 2 -24.388652444739986 10.344576488729919 -6.807651511622005 0 0 0
240 0 2 -29.39340813015409 13.269414872383667 -6.067896088965632 0 0 0
242 0 2 -28.577831604393833 12.240236581165263 -6.885258458293889 0 0 0
241 0 2 -29.035687501472996 12.422749701319042 -5.995008881651442 0 0 0
246 0 2 -26.454930942359784 9.891903001720676 -7.146582029231156 0 0 0
247 0 2 -26.565079031082206 10.380511571183181 -6.293438724705631 0 0 0
248 0 2 -26.04828272121739 10.922204179812072 -5.734869346400821 0 0 0
249 0 2 -26.530300652691423 11.206864094392209 -4.884035471028752 0 0 0
239 0 2 -28.90633861842346 14.052243788410257 -5.937804014362206 0 0 0
237 0 2 -30.21473189584946 14.616320410268859 -4.689101319066164 0 0 0
236 0 2 -29.360565137928766 14.30770147237148 -4.424546042583062 0 0 0
250 0 2 -25.53177540508964 11.511444250227957 -4.787661006296489 0 0 0
251 0 2 -25.600661911659746 12.273866009894496 -5.470159168859944 0 0 0
253 0 2 -25.227172163826065 13.617313895103772 -6.871816335452887 0 0 0
252 0 2 -25.451641079479522 12.874158447133267 -6.172521403737076 0 0 0
238 0 2 -29.78313910334003 14.254087017318213 -5.510433743842566 0 0 0
235 0 2 -28.927642430261 15.16463482060673 -4.110698611085878 0 0 0
263 0 2 -23.115628300759667 13.60486667933252 -6.6121748965430704 0 0 0
264 0 2 -23.266567130051378 13.93678231176799 -5.753328320998159 0 0 0
270 0 2 -22.19955513279099 14.023664806336084 -2.3097494260033398 0 0 0
268 0 2 -22.08087382456341 13.816712557255364 -3.899252351648288 0 0 0
269 0 2 -22.561485066121573 14.115818955126835 -3.1834412093024347 0 0 0
289 0 2 -15.60148331071341 16.590141715972425 -7.1472861005433295 0 0 0
290 0 2 -14.813505330180213 16.709324321357073 -7.704101868159701 0 0 0
291 0 2 -14.765414671248756 15.774891213225922 -7.859477839245989 0 0 0
265 0 2 -23.368555389874814 14.685823431494205 -5.182116752859261 0 0 0
266 0 2 -23.022917513974203 13.93508175972301 -4.704016567057337 0 0 0
267 0 2 -22.49288338691283 13.126690963852708 -4.4586292693845895 0 0 0
284 0 2 -15.319928210861066 15.601370025125027 -5.117013452260257 0 0 0
285 0 2 -15.152234735860505 14.719866165609329 -5.464298667957065 0 0 0
287 0 2 -16.270720474470963 15.273982200056368 -6.320958792962139 0 0 0
286 0 2 -16.116012919045513 14.639344332016792 -5.518751117830013 0 0 0
292 0 2 -15.047066951102119 14.95858709050033 -8.234498118885387 0 0 0
360 0 2 -24.341344737240775 5.4491638459040095 -5.385795522302919 0 0 0
361 0 2 -24.815016892384794 4.954521323992371 -4.717467962911247 0 0 0
359 0 2 -23.38891476605974 5.500237175353984 -5.255225574359739 0 0 0
353 0 2 -23.554627942550013 8.770930608868088 -4.072040644049263 0 0 0
354 0 2 -22.65703091852757 8.299668297023652 -4.096403019552916 0 0 0
355 0 2 -22.21855220097274 7.488133372376269 -4.388237216722863 0 0 0
350 0 2 -25.174025025819294 10.24351503177203 -5.327834287720449 0 0 0
351 0 2 -24.491169329630978 10.062882443000428 -4.681915964901072 0 0 0
400 0 2 -24.50815957679103 10.630596698486345 -3.889680907754651 0 0 0
201 0 2 -25.378814412714757 11.085438452812076 -3.899620163891826 0 0 0
202 0 2 -25.972782413433265 11.912218126894578 -3.766725457074116 0 0 0
234 0 2 -28.527465709068984 15.600847132336865 -3.355606112754705 0 0 0
203 0 2 -25.611295876520835 12.436662819172671 -3.0199662685254762 0 0 0
205 0 2 -25.626579484727475 13.410596657362136 -4.649929181314902 0 0 0
206 0 2 -25.148759304383695 14.264989257158609 -4.452248537854625 0 0 0
233 0 2 -28.458382878203107 16.150258240843538 -4.201412064750135 0 0 0
232 0 2 -28.352997609858704 16.840495791258128 -4.904834053701028 0 0 0
211 0 2 -23.06642414667951 15.203498380639031 -2.739525001927753 0 0 0
207 0 2 -24.554629733463102 14.976757599542879 -4.032429611750462 0 0 0
271 0 2 -21.624045191750913 14.774163730265439 -2.438714125375637 0 0 0
280 0 2 -17.946558382168384 15.327196947563001 -3.7990097980771265 0 0 0
281 0 2 -17.304632162206737 15.213800246097405 -4.481628729343627 0 0 0
272 0 2 -20.8073547423542 14.252116422561173 -2.229287740606643 0 0 0
273 0 2 -20.20154262033502 15.000612893138307 -2.213519266706618 0 0 0
282 0 2 -16.54610060064282 15.701375764315905 -4.284107104901255 0 0 0
283 0 2 -16.266451852483467 15.888761971451954 -5.184031878848225 0 0 0
231 0 2 -28.9231114706586 17.16245948324172 -4.228278707825656 0 0 0
229 0 2 -28.021514649264617 18.5092511440433 -3.9395346043073656 0 0 0
228 0 2 -27.636531445416185 17.95287763646655 -3.248197697028921 0 0 0
227 0 2 -27.237435353856313 17.290750490154224 -3.818493117841209 0 0 0
226 0 2 -27.194718200389953 17.520038355371 -4.751349728089054 0 0 0
366 0 2 -25.98602761072407 3.525589083431087 -2.8781370241665534 0 0 0
365 0 2 -26.667761564727456 4.302978904957455 -2.8909648977804174 0 0 0
367 0 2 -26.177951362328056 3.6175007111553485 -1.9365698594336898 0 0 0
368 0 2 -27.029383845257062 3.9269730349260037 -1.638169912955757 0 0 0
369 0 2 -26.902939658835106 3.7051910993144612 -0.7323834011898962 0 0 0
362 0 2 -25.53508337139107 5.387965725521854 -4.221756634026982 0 0 0
371 0 2 -25.550318470007724 4.459927905477093 0.17158212077145407 0 0 0
370 0 2 -25.99007930614368 3.960548836709435 -0.5774721189272234 0 0 0
352 0 2 -24.0093093171528 9.635310178256551 -4.015681841062503 0 0 0
399 0 2 -23.892097486638203 10.324623945763825 -3.1593798424374917 0 0 0
398 0 2 -23.045220550242966 9.891195404179253 -3.0409095983508285 0 0 0
204 0 2 -25.362901343455466 12.987287789747404 -3.806632631694766 0 0 0
275 0 2 -19.509747592692985 16.56087097828479 -2.53420869528651 0 0 0
277 0 2 -17.649983524534544 16.522883980739632 -2.134000278612767 0 0 0
213 0 2 -23.898490162598108 15.343612823552746 -1.3007411819908261 0 0 0
214 0 2 -24.671589727165248 15.772815861631777 -0.7877408699316706 0 0 0
212 0 2 -23.73634732120841 14.899225559862527 -2.084989654170944 0 0 0
209 0 2 -23.51719766093949 15.545160380643809 -3.9092478217505824 0 0 0
210 0 2 -22.623780975883346 15.29093054032831 -3.601756637213713 0 0 0
208 0 2 -24.234312677654998 15.429317371178092 -3.2851458260329784 0 0 0
274 0 2 -20.123262227585258 15.828159704813173 -2.63761395499758 0 0 0
279 0 2 -18.134683415921923 14.917914672458082 -2.946497012993723 0 0 0
278 0 2 -17.620392458545652 15.810891046304175 -2.8458360325245042 0 0 0
230 0 2 -28.11982021950822 17.597411347606634 -4.135279200459131 0 0 0
225 0 2 -27.239306814794617 17.06490153626515 -5.53999321942313 0 0 0
224 0 2 -27.050088032138678 16.066968924464994 -5.556902262989002 0 0 0
223 0 2 -27.89481080065039 15.760213106663683 -5.784128861526088 0 0 0
364 0 2 -26.667037536863425 4.8840573296860335 -3.7256588738251346 0 0 0
372 0 2 -24.966018700446078 3.839864933070256 0.6154720267817321 0 0 0
373 0 2 -24.14228105488326 4.352341971246708 0.6036725635726728 0 0 0
363 0 2 -25.82840768137951 5.119229280974803 -3.3362711139352497 0 0 0
374 0 2 -23.4477700998926 4.489553880826332 0.05708160273341772 0 0 0
375 0 2 -22.664578993698495 4.158103773805726 -0.507840840000392 0 0 0
376 0 2 -23.257181305428503 4.716886354380402 -0.9971319136629181 0 0 0
377 0 2 -22.630297614209766 5.415685226375382 -1.2240810979321244 0 0 0
382 0 2 -20.193055367874617 6.472802975218042 0.03977477106227144 0 0 0
381 0 2 -20.177737785328954 5.57430956377298 -0.07357025578907708 0 0 0
393 0 2 -24.266841344853322 8.486227022946338 0.2668009361105274 0 0 0
397 0 2 -22.901344056559502 9.276776636909329 -2.3896459485025305 0 0 0
396 0 2 -23.288357791152226 9.62985707709581 -1.568967660220363 0 0 0
216 0 2 -26.177095460501082 16.301152493209496 -1.3810079198957586 0 0 0
217 0 2 -26.50622641146675 16.517928479109298 -2.2776121200656263 0 0 0
276 0 2 -18.627172917501937 16.487782743140286 -2.1748588638746678 0 0 0
215 0 2 -25.631656772458708 15.915436113767756 -0.6742476732995762 0 0 0
221 0 2 -27.923489515097668 14.778299508877245 -4.702918162637494 0 0 0
222 0 2 -27.476886893361208 14.8627154608991 -5.56059194228535 0 0 0
378 0 2 -21.7308110427133 5.425798927981481 -1.6244183024364676 0 0 0
379 0 2 -21.519130154437747 4.857952181291079 -0.8234182391039373 0 0 0
380 0 2 -20.657979941496542 4.734922135033996 -0.3147985878610393 0 0 0
383 0 2 -21.01989958675183 6.409104958090303 -0.2860873993177582 0 0 0
391 0 2 -23.756748276778854 9.179599496364855 1.0185756585795673 0 0 0
388 0 2 -21.549231742521236 9.252420425171373 0.03975767150359014 0 0 0
394 0 2 -23.721642168136412 9.228787739861826 -0.06427668763502459 0 0 0
392 0 2 -24.655705435222096 8.93284275683544 0.9949970894214231 0 0 0
395 0 2 -23.34313175281779 9.997879009726244 -0.6069638799416087 0 0 0
219 0 2 -26.70382414404671 15.462500978354656 -3.6341424502740023 0 0 0
218 0 2 -26.5022921507292 16.223895451545996 -3.1285149544123207 0 0 0
220 0 2 -27.60900305752553 15.44466710578167 -4.133784270876325 0 0 0
387 0 2 -20.96515965834047 8.494133723098813 -0.05157495407228252 0 0 0
385 0 2 -21.756781638914717 7.106593759439651 -0.5358156277768491 0 0 0
386 0 2 -21.549486648085637 7.75253008486419 0.1324620399101078 0 0 0
390 0 2 -23.113775119417877 9.94842245964663 1.0228787946529614 0 0 0
389 0 2 -22.43540881637382 9.705660649151792 0.309788117135436 0 0 0
384 0 2 -21.930927149483214 6.305892045202582 0.03902395739441444 0 0 0

Velocities

126 0.8188768034656819 1.5999046665932273 0.9686477262795977
163 -1.7420366938634442 -2.3352795305018494 1.023790084793048
164 -0.2549461420914011 1.2579642218348477 -0.28121402920312094
127 0.2326748632358563 -1.922791655672992 -0.051501088651432145
128 -1.129602261519299 0.3411801088857439 1.653218535263779
125 -0.18960161943109477 1.090711873248194 0.4501573933851743
123 0.761045557739743 -0.1939020943217417 -0.6609554857728632
124 0.2409779199818503 0.6140915744846382 0.955751675274119
122 1.456919609645256 0.7756668715592575 0.6786356399267204
168 0.6074526126233581 -0.08295478033642165 0.8636717193424046
161 0.9858263897557491 0.29714034757559227 -0.2894059952246549
167 -0.20922621619413934 0.7338859362315604 0.497561500330882
166 -0.060797317644128976 0.07710637170991855 0.32888245781493197
162 -2.915165521830204 0.589511753083013 1.314610292525242
165 -1.5300734411348715 -0.7835030456642448 0.16451666196509332
160 0.682751950387176 0.04000751065056385 -0.6405380770080489
137 1.0280026429989577 0.40203791812338374 0.02429478199660509
134 0.0031910183789917584 1.2541152598921386 -0.15473346816737585
136 -1.0825656484762085 0.39084150780416393 -0.5548591170342629
132 0.2114282705749553 0.09839103617917075 -0.7394558009128057
133 0.7774148871959139 -1.5453028123457189 0.2718334255776108
129 -0.6220510333509633 -0.13665797016126618 0.2673645145538235
130 0.2557094776000548 0.5785990728549326 -0.879153363227704
120 -0.05900451851336458 -0.09806616887048047 1.4160009493213797
121 -2.170732556431389 0.40848523937700604 1.6003137604067639
196 0.9959497117573348 0.622718253609728 -1.458143398176507
170 -1.2741940229606663 0.12604106024377518 -1.1204006968925952
169 -0.8085349427913131 -0.24484080100407676 -0.4816822413379551
159 -0.40038601724229006 -0.7888157626997417 -0.6510473499685605
157 0.24089833014225323 -1.181599973475582 1.170475873055669
158 1.3852371963278636 0.25406477546911144 -0.6872769291975136
156 -1.086303560425119 0.12283981897085283 -0.6086405174031078
147 0.10204098085075511 1.9844409023097067 -0.49502728744018043
148 -0.9481431987387724 -0.41439689574770106 1.666967644693642
146 -0.6968977151499425 0.5816001090075307 -0.6547286093321942
138 0.10966121048115823 0.8836127383702864 0.2696216884478842
143 0.4228112963631885 1.0680490100321636 -1.1219517897594145
145 -0.5446303471804225 -0.27210025088063305 2.68970802315902
135 1.370235258101287 -0.003077526239263717 0.6602306187943067
142 0.8345058258478661 -0.696773913026594 0.0006687585006089902
141 -0.44756008702312755 0.3058774905502211 -0.3902998906916863
139 0.6445968857243991 -0.9427373437960824 -1.540346983454634
140 0.7856416378377613 0.8739710946054502 0.5410648499206197
131 -0.0721854242462405 1.9708917195263251 -0.14799167268778848
85 0.4087280430661272 0.08140678342572466 -0.8354856958156862
84 -0.5196149609202408 -0.2584613682481599 0.8990539855071922
83 -0.7881025533601835 -2.436573828766229 1.4308288703248944
81 -0.6810994130943789 -1.744375888508542 0.6849126695125399
82 1.362189169154041 0.914556553814439 0.30792522831119007
86 -0.08537780066798908 0.6854385406110581 -0.42996229002574715
119 -0.6890160806891802 0.6759599987310816 -2.5166065563249003
97 1.7004360753706191 1.4696732000679402 -1.0638840029199927
98 -0.4057813822588179 1.3594534169099763 -0.8944252467972599
99 0.0687300321820209 -0.14773008607625404 1.3277261876668034
100 0.6175226776611122 2.577253484770315 0.5738009986362661
198 -0.49805236902720196 1.347758881793466 -0.8345280121160568
195 -0.2991908327899003 -2.4347648244040068 1.1881109228342697
197 -0.5384550610574446 1.1334743951851165 0.1027469115631276
194 -1.4850652527976345 -0.7064666621698873 2.0207313973027943
176 0.580682669225278 2.1999644743463276 1.213199226771931
199 0.6360246425299835 0.35370460075056165 -0.3187979699350533
153 -0.012993309475830439 1.4669664856251543 0.7701478751684159
171 -0.4119501299750451 -1.1282443061405756 0.15584017004079048
172 -0.7805621750514365 -0.1189005193949624 -1.0185835682776037
173 0.7130475699362848 -0.07766712481396065 0.7210027421692276
174 0.7094290151846553 -0.9860007033543741 0.2854737553380988
175 1.2762796970793926 -1.115937784245294 0.47103015784234514
155 -0.9327304031854058 -0.9022600848298132 -0.5543709026784024
154 0.16517678858124124 -1.1545584584235355 -0.24760095318083122
152 0.968201656730713 -0.994416161110939 -0.4230190557706083
151 -0.68671406507013 -0.04278261420134084 -2.754134672910996
150 -1.249699483236168 -2.152671855312631 2.0782207058205935
149 -1.3333388637498444 2.6329917286914823 -0.3360919519426263
13 -0.9550584865446653 1.647523784888835 -0.4022782186664466
14 0.3132530548654706 -0.5301069594516705 -0.18891756804472004
15 1.553848558902812 -0.5874033049216517 0.12197091421158818
17 -0.0030379332275033907 1.7651249992581681 -0.39425690936498503
144 -1.346323873178943 -0.8693540204852392 0.10849170413512706
79 -1.5993582638161048 -0.9258196886370782 -1.4877183078989746
80 1.0449071402079668 0.9586041172904401 0.07703720855979035
87 0.4789660988744595 0.8350381653032684 0.27641513059695805
88 1.718499955577677 1.0701197301539231 -0.3899454415808822
89 -0.8387107416745182 -0.3561788497240992 -0.4460028957684413
90 0.34916313408367494 -0.147413022468334 0.006557742741740813
91 0.4117993911218256 -1.678342991203779 -1.1054396231850243
92 -1.4110012804656757 -0.5895313678274303 0.6725607518872828
118 0.3233719626597401 -2.3335398505176124 -0.5391401357651512
116 -0.17993901479314284 -1.2652937330184615 -1.0747930329342381
94 0.4629178069466146 -1.079823927564462 -0.6588823640957708
95 -0.23433790381917569 -0.8805720835912864 -0.3590089798586168
96 -2.2705006027403485 0.5693247116909359 -1.9072966170216885
101 -0.4863449549800837 0.5006264938395053 1.2416220312264092
117 -0.9546528653496508 -0.11597171019619013 -0.18646777199646336
115 -1.5347205545860783 -0.15869368012437132 -1.1037132344037133
110 -1.2512266151448086 -0.42129142801500596 -0.23959370152252937
102 1.6851971204114953 -1.5234311357242951 0.6837706575875884
103 -1.2788398735727942 1.0660066183260757 -0.26498050510434235
109 -0.42621633625619965 -0.9641048660267949 -0.09810779584687071
108 -0.0044311225147493916 -1.7064876469036643 0.34156373429094994
107 0.13967218462026398 -0.49155484895024304 0.6942405595021365
106 -0.7701273938485305 0.23079332266661354 -0.543161724381289
182 0.31748065384409463 0.5296103633540934 0.9405827370770231
181 0.21722727761756444 0.7550624741684014 0.5148406640935482
183 1.4644975842750045 -0.27882551373430736 0.3209650367375755
179 -0.8324639735988087 0.15234697204853517 0.023817535885150842
178 0.08495248333210834 1.0891612488394606 -0.9044153086376204
193 0.5471198493988574 -0.9324912381213701 -0.39404843094909453
192 1.0299116841465026 1.8315247510449988 -0.5977995061161293
177 -0.8528759776624254 -0.1809437252844247 -0.5680648429249617
200 -1.0535438813491527 0.5298166834856627 0.3971950867857797
1 -0.2986379018056108 -0.043662109807684896 0.9683226763022555
65 0.23634194977902012 0.9395377947038064 -0.7532430917132555
11 -0.2906987387807656 0.3126678957297843 -0.4946448274565621
3 -0.32536442557186995 0.07400561237107059 -0.08308774150779337
2 0.062046465888207294 0.04081653800880822 0.10679100968871823
50 0.3453301963524394 -1.157368148867564 0.2858629390382485
66 -1.4151150906186136 0.8379827571868399 0.49298227155029234
10 -1.4084071099622144 -1.5082133269743858 1.579140050139245
12 1.3897907532308087 0.2931532397822702 0.8013341257033607
16 0.5500923708127151 -0.0036836702147124284 -0.9753832687462776
18 0.9795624753969071 2.518235071698873 -1.9687890556616874
78 0.01596055609168942 0.08454695392463801 0.900445758798895
75 -0.5690846101785298 -0.4863854563182956 0.07860230914502744
74 -0.09107043663306208 0.08725406956848586 -0.09065580592024455
77 -0.5954896992953786 0.489529500184846 -0.0373833931154552
76 -1.1853847676297338 0.5387846330597836 0.5815744923882604
93 0.4410907459793072 0.8383372944473455 -1.2892187300347242
114 -0.8621561343564628 -0.9086773908550615 0.5255741743035196
111 -0.37200708801749566 0.8843884683865396 0.13810308392767132
112 0.28802064551683104 0.1200234544175178 -1.1364612789828832
104 -0.15935288002153342 0.6109657772818075 0.4665542189591071
113 -0.5483582033627424 -0.8500220107158492 -0.21119203288324456
105 0.5231459337037425 -1.7291678730449282 1.1471603334476266
186 -0.39431765515892225 -1.5874707181496097 -2.377609286740684
185 0.8707713757482183 0.8206209544878006 1.313912985024222
184 -0.9181729425019499 0.9221043920484473 -0.46975610084161323
191 0.020790278083032486 0.9425648919820788 -1.5959927077422231
180 -0.985840788759922 0.4946804813055179 0.40404942633287444
190 1.0052437712291458 1.3721935310217612 0.1790825425236916
60 -1.5923471442832158 0.7066149106858659 0.5059019514296728
53 -0.5149770334233081 -0.5230671531327076 0.21479999781663364
59 0.5956420464921379 1.657590027549073 -1.398478800124784
61 -0.7898817855997031 0.2699764091468825 2.333043859330522
58 1.698929831562049 -0.04309072359922178 0.13394805118493214
62 -1.0162558052628787 0.5090796677329961 1.9306660180473245
64 0.16643480516647302 0.33322335685171917 0.9771053927793748
6 -0.08186246418252785 0.11539861881732563 0.4497818096273467
5 -0.8306426235684966 0.026972518656076916 1.9181593595119517
4 0.22384713162013947 0.19481966447144947 0.1910721261101922
51 2.0644541511491816 0.20711331040410635 0.43515257647879474
49 -0.29827287177109085 -0.9901819034529182 2.550112678803169
52 0.4825575279961458 0.3932296063593387 -0.49200820376209814
54 0.19972554814792914 0.24205307578754565 -0.391056119460441
56 0.14508724407516493 -0.3005897411407428 -1.1645284011992105
57 1.0650770487688377 0.9322219381667887 -0.21710966531300654
63 1.7000604378835962 1.465106164150874 0.3647097583963259
67 0.7405316602174499 0.39099454400309297 1.1302691184861131
68 1.3539669769590617 1.5195395034506751 1.9416860112935708
9 1.5115517818226016 -0.25102029023234473 0.34253601750747364
8 1.8496735766178447 -0.3418971460616158 -0.18953922574336374
7 -0.1847170126411079 -1.8844608917781722 -0.24461191340414562
46 2.5175823950605483 -0.2981748979891468 -0.5902302875678145
48 0.689642952116237 -0.7893666864444664 -0.3123349449293298
47 -0.5482309579227044 -0.13915528360578014 -1.0396589378850802
69 -0.05353339230963008 -0.2886682652587109 -2.1429843019639545
70 -0.777758164761578 0.1622527371674621 -0.8577950756137439
19 1.1973396289252678 0.046641724015758404 2.2294221611997815
71 -0.09206200718580618 1.1366806941125494 0.7101511524885685
21 0.2967674102451978 1.1388538370108687 0.24968226551090217
20 -0.6225951203346418 0.5696147957175102 0.9010606420828478
22 2.255669218199857 -0.42263099397903303 -0.07883591764913166
73 -0.20491145200532185 0.42487084068162445 0.7309843324922098
72 -0.9566451172659389 -0.08931433511627779 1.2655009043196344
26 0.8313803502583537 -0.26611164485414207 -0.2917104039956078
25 0.5571936847220125 -0.03634906521692088 -1.035936989440238
24 0.3467225161913271 -0.5507723263916919 -0.7095249027962521
23 0.35834653134946787 0.11815582701883683 -1.4960217824895157
187 -3.186756257540932 0.19250065723046966 -3.0308127590215097
189 0.060564130079795664 -1.542311867546769 0.29883904227771113
188 0.8713033102156044 -0.6361493673465196 1.5401109633197583
55 0.8916828152923425 1.4580761619642066 -0.236876209406214
45 1.3144948031143067 -0.29708170725448957 0.08859220079068975
44 -0.42473045829186373 0.8700856618929875 -1.5035655825785137
41 -0.0009532445884234686 -1.4553704118288315 1.0301418555278532
28 1.292344787615798 -1.0455800833560727 -0.5845515144914789
27 1.5356646109866126 0.18678854316339433 0.05890382263123306
29 -0.46641981960377404 1.57757294192029 -0.48795366591512385
34 -0.24043413109761944 -0.14946500934285223 0.0984764892302407
37 0.2822450229454734 -0.10372080559615196 -0.907212483643086
35 -0.011417996197038944 -0.5316186032869439 0.5208405392644327
38 0.45033927055042833 -1.1573111930381665 1.0032586146346558
39 -0.16254664897090634 -0.4813866873029698 0.7260457822202069
320 -1.9893028411187714 0.40973013615873355 -1.1114625069873854
319 -0.7384241392373327 0.4204074510524072 0.9709005939653137
318 -1.3791522914643894 0.44849558199868195 -0.21686829907153116
317 0.7767843525683934 0.6829175793118918 0.8943559178807976
316 -0.5743982362167294 1.876318867187261 0.7434344302873762
314 -0.4486781279792257 1.6943159877377971 1.2295152490578003
313 -0.14729306375922133 0.2404441525435373 1.0014026619496907
312 -2.555545908972701 -2.4115393191655397 -0.4808652285682732
311 0.6681278410159889 -0.8982727397704849 0.18644017494954115
310 1.3763223419034363 -0.9877026701753777 -0.01242910469532603
309 1.9943021771160512 -0.9521327707463502 0.32781462660656513
307 -1.0725399715303292 -1.741021217358104 0.3926474490517294
42 -0.8282996704690051 -1.3937954726676363 0.7179814988065034
43 0.6712341209479771 -0.9410845370775345 0.24245832340452583
40 -0.3252046222531789 -1.186662847444032 0.9810436261013281
30 -0.6685258560849626 2.2832224050370775 0.06988704285225582
36 1.0344184093127506 -0.9772537545053694 0.6547434804409366
31 -0.09211160674175681 -1.5706462134975008 0.5805102290675974
32 1.1808082764616883 0.8422750846700511 1.1597456634786036
33 -0.35611213988588797 -2.0754764316407304 0.6445568789760738
321 -2.089782958132692 0.8683584559753428 0.06623421723706735
322 -1.080928905359778 0.38529910707851234 0.9360376201176295
315 -1.4119038926189447 0.0678860395973426 1.1943384149435885
304 -1.9407614703429144 -0.0763451795983209 -1.472670799129995
306 -0.9100546898872043 -1.0696165248741067 1.3465273800805264
303 1.3693727846040924 -0.7968712956229169 1.2415881050125837
302 0.28486296967236935 0.39359680020339277 1.1333440141677373
308 -0.8510169550015365 -2.4967429813256 0.901493309938135
305 0.49370839169096264 0.9702323660469904 1.2388961207058218
323 -1.688317591129642 -0.43643557787540277 0.9088486980662404
329 0.5855100534099016 -0.9151904659572475 0.7804059275207067
328 1.9179851278216695 0.6277782272488965 -0.013375519578847195
324 -1.4312324780379555 -0.23824338991114738 -1.7801248345283904
326 0.740377402765397 -0.722453309741663 -0.955460166414576
325 -0.4130041010991904 1.1037295205638593 -1.5236743473029501
330 0.6080393905833517 -2.74490998639452 0.11046405887209976
331 -1.185849250917453 -0.4149674968608952 -0.8673998665220701
327 0.29768247622631805 0.7528734858692145 -0.8829361978765937
332 2.394936988134178 0.0463306651951601 -1.098422253495796
333 0.31021650563111447 0.40024627893145 1.4105006724901972
337 0.07619218221699955 0.27334816395436556 -0.0011835556248356027
336 0.3828985455713728 0.5061007569902509 0.8064581210510099
334 0.44149767375907967 -1.0142082797418448 0.011182405597704365
335 -0.842809158776833 -0.628877019338762 0.22457438104984623
301 -2.4039879665429433 1.851720302343405 -0.9513339483431867
300 1.159126299453874 -0.6962654790131271 -0.173819493449547
299 -0.7225833324210443 -1.343506038127174 -2.0749731636886133
339 0.8182771505875372 -1.617364362555896 -0.40654825398511546
340 1.3395462084417151 -0.456575278875857 -1.3702687650185101
338 0.6522518162166916 -1.7884662608467767 -0.5782791511609581
343 -0.6883915997545913 1.3726916179683268 -0.8164925687120865
342 -1.0554746893349847 0.7397071831765005 -0.7517251203517982
341 -1.2009462340015364 -0.7734436755664478 -0.5869270750868506
298 -0.8468050579933419 -0.9030902268011632 0.21415658786137054
297 -0.5856535087364938 0.4122757765807022 -1.590057096478409
296 0.05693512507481083 1.12181409291432 0.26996798000917177
257 -0.5196764688916752 1.0237234318680872 -1.0874360054249788
256 0.8506895748365967 0.07265779238173677 -0.9159026305685813
258 0.8434768535400426 -2.7186354200871716 0.9598037205338018
259 -0.11432099082923106 -0.6326241802618743 -0.8468248260151965
260 0.610656350180311 -2.0974837938082658 1.171858346323461
344 -1.040197238686986 0.7011279638937746 0.9383565298104708
346 -0.4230185800926628 0.679853687059188 1.76763577720227
243 2.2172782047834714 -0.3326279340960277 1.699561445704399
245 1.1000906569696485 0.5184902797779504 -0.25976020336489813
244 -0.6025756154462842 -1.3165978052934757 -0.1709381424074073
345 -0.461763014756538 1.5551430913363997 0.32685355671064
254 -0.24877226734101907 -0.7191756963721636 -0.1646340248203409
255 -1.9388355260574663 -0.01445426362337393 0.9680867702227371
261 -0.9889261837466213 1.1186065310045636 -0.6733387974736197
262 -0.3428669738273949 -0.40555231312428786 0.8923346541222151
288 0.9301832450253666 1.4135021449583314 -0.36291045124019616
294 -0.6835030086550415 -0.7826520848956563 0.5873212215735248
295 0.4441595222308757 -0.5254353744038643 1.0426266677546183
293 0.134124502427299 -1.4671140410563825 0.08982312505980011
356 -0.11654432141694418 0.017511406283448744 0.795191047981376
357 1.4315614684856308 0.7768286523676219 0.04084845346422476
358 1.036425965247073 -0.8237004881285662 2.3328687786458255
347 0.3780797229928059 0.0868565227438789 -0.287589441701368
349 -3.3118071459540643 -0.6862383025406198 -0.899928116383611
348 -0.7388528066053336 -1.9388049126246902 -1.0877216756042938
240 -1.1432550786676214 -0.3121204778325648 0.2181420190186086
242 0.8105968012052146 0.21902207862570972 -0.6811794952695224
241 1.1292631124566888 -1.0001006501975915 -0.1651266133033829
246 0.5966295349286246 0.38275730161971855 -0.5204344685544837
247 0.38895372389902505 1.6250981015350352 -0.5498378965567298
248 -1.37663371310872 0.9997410544549099 2.221072605116585
249 1.8390470013877585 0.3385948420638754 -0.6257272379473839
239 -1.126395753457373 -0.39735231853219577 -0.44050542244129576
237 -0.6851198481395653 0.38067365679760795 0.18404392875885106
236 -0.8150810793676697 0.5220419632456135 0.9693969457041065
250 -0.698829290233588 -0.08076158559536009 -2.0615237922360152
251 -1.3969069942374506 0.0915293845509556 0.3599272513076683
253 -1.7282113961152994 -0.46370327225548624 0.5430046331554655
252 0.8744397560350673 -1.70014059271708 1.7530765182126216
238 -0.22478637777864838 -1.411541682479529 0.1643809845519778
235 -1.301057090539241 1.2326339419271808 -0.4189912749649847
263 0.42613198550719644 0.950976615105587 -0.6049895926761226
264 0.8342770337831882 -0.7991752741997556 -0.21154564766125125
270 0.13828739211258192 -1.1176613000364586 -1.0638067714371513
268 -1.3563977256561701 0.34868842638519326 0.6985478134201792
269 2.141532830021064 1.7228044110870537 1.104394110734142
289 0.5209121063477069 0.2748057903030619 -0.7599831213408681
290 -1.8640221345514674 -0.7010526505213783 0.9039713415958808
291 0.5112008045579526 -1.5515975041564305 -0.0510093027870394
265 -1.1353942530306524 -0.772462822435047 0.5047937586359177
266 0.9455894775716562 0.8857325554120494 0.8586701638154874
267 1.0377192079706106 0.28838871100993246 -0.5110482704930622
284 0.4462509281003244 -1.9607111235977464 0.12827630259255227
285 1.3623200431973843 -0.001023357323143556 0.21926393990367507
287 -0.5115600944002754 -0.30438632741663835 0.31438802829855667
286 1.627293099109517 -0.3517480481121175 0.08727413089520139
292 0.35425274929023187 -0.5013718910731694 -0.5592294958485481
360 0.26181717917790726 -0.5392287400014663 -0.17138777764266294
361 -1.067415209133974 0.3873492912851808 0.39684362352134744
359 -1.6795386562197534 -1.443248252035146 -0.13698898081273536
353 1.6667711117360198 0.19314466093962565 -0.5270103857329338
354 -0.5098459129757135 -1.4332475406594662 -0.5827645683908917
355 -1.7815112921336445 0.997819776826514 0.45810204288983414
350 -2.2331816329357737 0.2619123056881011 0.06947575060756025
351 0.8930597046150646 0.5778894807430681 -0.7922504232037795
400 -0.5901296500903859 0.5213442672794375 -0.19560369663955102
201 -0.8535458812932182 -1.1493717301313418 -0.5487453695158913
202 0.05192666688407944 -1.258536630507246 1.0082029997824458
234 2.4604240991215214 -0.5437653154404672 0.1654902779559848
203 -1.8344687172243868 0.3901946926892408 0.04579189006627721
205 -0.14709802950769957 -0.1658670874247265 1.6261732206134512
206 0.8356502351050602 -1.9696749909227247 1.42443822606514
233 -0.9901419566772804 -1.8692001719696105 -0.3485961468530003
232 -0.5944342100878133 -1.0530961726174495 -2.17171427121489
211 -0.5047066552540324 -0.523297217027576 -0.6832417359193623
207 -1.0525339154162068 1.2230378887744089 0.048469999750525794
271 1.1395175125289998 0.3288743861569391 1.6491454102249508
280 0.6555556148218527 0.5919194175124847 1.0600656734092384
281 -0.08913353081142203 -0.22523238017616312 0.04354102731627327
272 -0.7661621285431193 1.884615512257316 1.2008932578433318
273 0.35723901370846894 0.4107219397319542 -1.2421402430022341
282 1.2358495831695628 -0.6682582107692139 -0.43434164816404053
283 0.9255580612211334 -0.8374425253762546 -1.050720914817557
231 -1.6651996911876472 0.9150161226450018 1.2597093037193183
229 -0.4253471699361764 -1.2398592243038515 -0.81762801719578
228 -0.10480514525211274 0.4362091541475711 -0.5065459247538628
227 0.1800821584774912 -0.144428026696512 -0.7676311850391209
226 -0.5734320755251855 -1.047614767692757 -0.7671594563281999
366 0.7110815761641144 -1.667548934516057 1.1661019264824501
365 1.3329464009362453 -0.3531394524478416 -0.564137848586562
367 0.5323087638904225 0.3342026615719164 -0.2729177627530369
368 1.3523930018861647 0.5602868043101342 0.5542261000264408
369 0.7269801101217881 2.081988240103739 -0.5834053794689011
362 -1.3652499401693556 0.13531950123805025 -1.194276608085783
371 -0.7534964512937775 3.0775613090266374 -0.6253928629261554
370 0.03037215758850803 -2.239709993947804 1.2057466239715167
352 0.10435148895474369 -0.8582101221754979 -2.2112806143973636
399 -0.38110384716976353 -1.437537569444177 -0.23345743102323988
398 -0.8239688083137195 -0.49031934939167887 -0.6401911782631935
204 -0.010996119854210507 1.1392302075329517 0.15037983746812547
275 1.0373344887319385 1.107959179550115 -0.25435904823971134
277 -2.151214509395334 -0.599074829943254 0.44600270863723473
213 -2.9509130123805125 -0.5109331592508171 -1.3311800318076665
214 -1.2213596032258454 0.7183995901417675 -0.6137151055821894
212 -1.3526005659483455 -0.2932677472821346 0.24205891192905254
209 0.05623988002477394 -3.155514911638733 0.41103498980091935
210 0.5143030370349772 -0.6955747447116554 0.04566465690526588
208 -0.18459806230189119 1.5509608773925927 0.09613549393563445
274 0.7744266506608445 -0.6104926860937425 0.30511954699030847
279 -0.09326946732909455 -2.290294577831131 -2.7380023924982213
278 -2.3274958058661452 0.46325527189631854 -0.2659552638317994
230 -0.5883996505593763 0.376322410319023 -0.5294883572240198
225 0.37834132216254746 -1.4812166346411635 0.19682452724168537
224 0.4982716933223942 0.3340767546573135 0.03959745310072392
223 0.9888983681547434 -1.0936431361147512 -2.0630243750462687
364 0.9548957385843986 -0.5932006027734742 0.9601856232324941
372 -0.46980353459233987 1.8084318211574184 -1.533856408356938
373 -1.441646719647932 -0.5567803677230538 -0.38980924590991883
363 0.44747334213852874 0.7691615087852127 -1.158608498053072
374 1.620901219149708 -0.9305641275888616 1.3435663879206206
375 -0.15411779746465565 -0.8317052333073193 -0.8081735684314756
376 -1.707343060015562 -0.6613707248090103 -0.02333310088678779
377 0.5924319022474165 -0.5745247812417319 -0.8003795541470718
382 -1.2479991990841077 0.5100511537713744 -0.2390497406173952
381 -0.496859531565788 -0.5533702956608292 -1.2270894260004825
393 -0.025763975698444554 -0.5883676543868347 2.262436446032287
397 -0.1421056124032765 -0.6117226157209101 -0.9064716949489986
396 0.12093671207816539 -0.07221312333776181 0.1577396305883127
216 -0.8437722206736065 -1.554228940271722 -1.249417596933634
217 1.6883899225572772 -1.0591122832225375 0.39138663461170015
276 -1.3935711114203264 -0.15105666117864283 0.3979744135023266
215 0.5472651297966439 -0.492079485341802 0.5830301171703584
221 0.35971486409274334 1.392087010178459 1.0299629162133386
222 0.8226401408537324 -1.4897935212061828 1.2579213362458903
378 -0.4843570614197491 0.5082680297321202 -0.8673275666776858
379 -1.1715697953693824 0.010550768489338879 0.16687032587607428
380 0.1417009429816113 -0.6846523421874966 -0.4010489135711358
383 -0.3147291182321158 -0.701142974594264 -1.9736523301301234
391 0.15848340067096942 0.6433414444242493 0.8993925245962073
388 -0.0835978532555094 1.6639054674872926 0.10790228639377714
394 -1.033979660540828 1.2162053971146864 -0.3660801225276556
392 -0.8985558697751412 -0.7455970629541275 0.7635740599869518
395 1.5816814130037042 -0.49047294766993854 1.8145733726519488
219 0.6982567116168044 -0.7328278095662984 1.3105172931995066
218 1.7849820542581498 -0.11494877722534028 -0.852566059642605
220 0.6478462181078857 1.5048561235843672 -1.0135973369717575
387 -0.09801273871431682 0.7771301286653393 1.6277356405637902
385 1.2641573611921957 -1.182698558672192 -0.16120332222821085
386 0.5728332467464718 -0.11601939432567943 -0.9956559779050367
390 -0.38690802659249485 1.591775159823373 -0.304848179689839
389 0.11009607570746041 -1.0268037548786806 1.1345321690185564
384 -1.0182125489291236 0.10765769802890385 0.01393720003470339

Bonds

1 1 126 127
2 1 163 164
3 1 164 165
4 1 127 128
5 1 128 129
6 1 125 126
7 1 123 124
8 1 124 125
9 1 122 123
10 1 168 169
11 1 161 162
12 1 167 168
13 1 166 167
14 1 162 163
15 1 165 166
16 1 160 161
17 1 137 138
18 1 134 135
19 1 136 137
20 1 132 133
21 1 133 134
22 1 129 130
23 1 130 131
24 1 120 121
25 1 121 122
26 1 196 197
27 1 170 171
28 1 169 170
29 1 159 160
30 1 157 158
31 1 158 159
32 1 156 157
33 1 147 148
34 1 148 149
35 1 146 147
36 1 138 139
37 1 143 144
38 1 145 146
39 1 135 136
40 1 142 143
41 1 141 142
42 1 139 140
43 1 140 141
44 1 131 132
45 1 85 86
46 1 84 85
47 1 83 84
48 1 81 82
49 1 82 83
50 1 86 87
51 1 119 120
52 1 97 98
53 1 98 99
54 1 99 100
55 1 100 101
56 1 198 199
57 1 195 196
58 1 197 198
59 1 194 195
60 1 176 177
61 1 199 200
62 1 153 154
63 1 171 172
64 1 172 173
65 1 173 174
66 1 174 175
67 1 175 176
68 1 155 156
69 1 154 155
70 1 152 153
71 1 151 152
72 1 151 200
73 1 150 151
74 1 149 150
75 1 13 14
76 1 14 15
77 1 15 16
78 1 17 18
79 1 144 145
80 1 79 80
81 1 80 81
82 1 87 88
83 1 88 89
84 1 89 90
85 1 90 91
86 1 91 92
87 1 92 93
88 1 118 119
89 1 116 117
90 1 94 95
91 1 95 96
92 1 96 97
93 1 101 102
94 1 117 118
95 1 115 116
96 1 110 111
97 1 102 103
98 1 103 104
99 1 109 110
100 1 108 109
101 1 107 108
102 1 106 107
103 1 182 183
104 1 181 182
105 1 183 184
106 1 179 180
107 1 178 179
108 1 193 194
109 1 192 193
110 1 177 178
111 1 200 1
112 1 1 2
113 1 1 50
114 1 65 66
115 1 11 12
116 1 3 4
117 1 2 3
118 1 50 51
119 1 66 67
120 1 10 11
121 1 12 13
122 1 16 17
123 1 18 19
124 1 78 79
125 1 75 76
126 1 74 75
127 1 77 78
128 1 76 77
129 1 93 94
130 1 114 115
131 1 111 112
132 1 112 113
133 1 104 105
134 1 113 114
135 1 105 106
136 1 186 187
137 1 185 186
138 1 184 185
139 1 191 192
140 1 180 181
141 1 190 191
142 1 60 61
143 1 53 54
144 1 59 60
145 1 61 62
146 1 58 59
147 1 62 63
148 1 64 65
149 1 6 7
150 1 5 6
151 1 4 5
152 1 51 52
153 1 49 50
154 1 52 53
155 1 54 55
156 1 56 57
157 1 57 58
158 1 63 64
159 1 67 68
160 1 68 69
161 1 9 10
162 1 8 9
163 1 7 8
164 1 46 47
165 1 48 49
166 1 47 48
167 1 69 70
168 1 70 71
169 1 19 20
170 1 71 72
171 1 21 22
172 1 20 21
173 1 22 23
174 1 73 74
175 1 72 73
176 1 26 27
177 1 25 26
178 1 24 25
179 1 23 24
180 1 187 188
181 1 189 190
182 1 188 189
183 1 55 56
184 1 45 46
185 1 44 45
186 1 41 42
187 1 28 29
188 1 27 28
189 1 29 30
190 1 34 35
191 1 37 38
192 1 35 36
193 1 38 39
194 1 39 40
195 1 320 321
196 1 319 320
197 1 318 319
198 1 317 318
199 1 316 317
200 1 314 315
201 1 313 314
202 1 312 313
203 1 311 312
204 1 310 311
205 1 309 310
206 1 307 308
207 1 42 43
208 1 43 44
209 1 40 41
210 1 30 31
211 1 36 37
212 1 31 32
213 1 32 33
214 1 33 34
215 1 321 322
216 1 322 323
217 1 315 316
218 1 304 305
219 1 306 307
220 1 303 304
221 1 302 303
222 1 308 309
223 1 305 306
224 1 323 324
225 1 329 330
226 1 328 329
227 1 324 325
228 1 326 327
229 1 325 326
230 1 330 331
231 1 331 332
232 1 327 328
233 1 332 333
234 1 333 334
235 1 337 338
236 1 336 337
237 1 334 335
238 1 335 336
239 1 301 302
240 1 300 301
241 1 299 300
242 1 339 340
243 1 340 341
244 1 338 339
245 1 343 344
246 1 342 343
247 1 341 342
248 1 298 299
249 1 297 298
250 1 296 297
251 1 257 258
252 1 256 257
253 1 258 259
254 1 259 260
255 1 260 261
256 1 344 345
257 1 346 347
258 1 243 244
259 1 245 246
260 1 244 245
261 1 345 346
262 1 254 255
263 1 255 256
264 1 261 262
265 1 262 263
266 1 288 289
267 1 294 295
268 1 295 296
269 1 293 294
270 1 356 357
271 1 357 358
272 1 358 359
273 1 347 348
274 1 349 350
275 1 348 349
276 1 240 241
277 1 242 243
278 1 241 242
279 1 246 247
280 1 247 248
281 1 248 249
282 1 249 250
283 1 239 240
284 1 237 238
285 1 236 237
286 1 250 251
287 1 251 252
288 1 253 254
289 1 252 253
290 1 238 239
291 1 235 236
292 1 263 264
293 1 264 265
294 1 270 271
295 1 268 269
296 1 269 270
297 1 289 290
298 1 290 291
299 1 291 292
300 1 265 266
301 1 266 267
302 1 267 268
303 1 284 285
304 1 285 286
305 1 287 288
306 1 286 287
307 1 292 293
308 1 360 361
309 1 361 362
310 1 359 360
311 1 353 354
312 1 354 355
313 1 355 356
314 1 350 351
315 1 351 352
316 1 351 400
317 1 400 201
318 1 201 202
319 1 201 250
320 1 202 203
321 1 234 235
322 1 203 204
323 1 205 206
324 1 206 207
325 1 233 234
326 1 232 233
327 1 211 212
328 1 207 208
329 1 271 272
330 1 280 281
331 1 281 282
332 1 272 273
333 1 273 274
334 1 282 283
335 1 283 284
336 1 231 232
337 1 229 230
338 1 228 229
339 1 227 228
340 1 226 227
341 1 366 367
342 1 365 366
343 1 367 368
344 1 368 369
345 1 369 370
346 1 362 363
347 1 371 372
348 1 370 371
349 1 352 353
350 1 399 400
351 1 398 399
352 1 204 205
353 1 275 276
354 1 277 278
355 1 213 214
356 1 214 215
357 1 212 213
358 1 209 210
359 1 210 211
360 1 208 209
361 1 274 275
362 1 279 280
363 1 278 279
364 1 230 231
365 1 225 226
366 1 224 225
367 1 223 224
368 1 364 365
369 1 372 373
370 1 373 374
371 1 363 364
372 1 374 375
373 1 375 376
374 1 376 377
375 1 377 378
376 1 382 383
377 1 381 382
378 1 393 394
379 1 397 398
380 1 396 397
381 1 216 217
382 1 217 218
383 1 276 277
384 1 215 216
385 1 221 222
386 1 222 223
387 1 378 379
388 1 379 380
389 1 380 381
390 1 383 384
391 1 391 392
392 1 388 389
393 1 394 395
394 1 392 393
395 1 395 396
396 1 219 220
397 1 218 219
398 1 220 221
399 1 387 388
400 1 385 386
401 1 386 387
402 1 390 391
403 1 389 390
404 1 384 385
