LAMMPS data file via write_data, version 29 Sep 2021, timestep = 53752000

100 atoms
1 atom types
100 bonds
1 bond types

-3.12 3.12 xlo xhi
-3.12 3.12 ylo yhi
-15.6 15.6 zlo zhi

Masses 

1 1

Atoms # angle

179 0 1 -2.575295 0.038289 -13.330674 0 0 0
180 0 1 -2.481107 -0.283619 -12.400376 0 0 0
181 0 1 -1.630166 0.195888 -12.575788 0 0 0
177 0 1 -0.798910 0.638887 -13.286137 0 0 0
178 0 1 -1.655493 0.284042 -13.559956 0 0 0
176 0 1 -1.148503 1.525401 -13.106461 0 0 0
168 0 1 -0.682112 -2.051652 -10.364362 0 0 0
169 0 1 -0.495100 -1.177093 -10.590045 0 0 0
171 0 1 -1.864896 -0.552270 -10.537483 0 0 0
170 0 1 -1.403746 -1.319936 -10.269665 0 0 0
182 0 1 -0.937651 0.332328 -11.892238 0 0 0
183 0 1 0.041502 0.223983 -11.971755 0 0 0
175 0 1 -1.937225 1.293373 -12.529684 0 0 0
174 0 1 -1.840459 1.568211 -11.565705 0 0 0
172 0 1 -1.584466 -0.107265 -11.315326 0 0 0
173 0 1 -2.191707 0.662761 -11.558024 0 0 0
167 0 1 0.166133 -2.525043 -10.053743 0 0 0
166 0 1 -0.168680 -1.911355 -9.413254 0 0 0
184 0 1 -0.340637 0.076008 -11.140609 0 0 0
186 0 1 0.220873 -0.832641 -9.564403 0 0 0
187 0 1 0.083647 0.125593 -9.355944 0 0 0
185 0 1 0.153088 -0.266655 -10.326046 0 0 0
188 0 1 -0.003140 0.889302 -8.725648 0 0 0
12 0 1 -1.969234 -1.587055 -8.470975 0 0 0
13 0 1 -1.622159 -0.764525 -8.219232 0 0 0
165 0 1 -1.085919 -1.604579 -9.189239 0 0 0
164 0 1 -1.142101 -0.631619 -9.415877 0 0 0
163 0 1 -0.567609 -0.714115 -8.656477 0 0 0
162 0 1 0.253480 -0.432157 -8.213891 0 0 0
161 0 1 0.909266 0.242124 -8.568660 0 0 0
29 0 1 1.813071 -1.526967 -8.661615 0 0 0
30 0 1 1.370720 -1.739085 -7.829750 0 0 0
31 0 1 1.160341 -2.226608 -7.048671 0 0 0
28 0 1 2.365169 -0.697084 -8.513828 0 0 0
160 0 1 1.471974 0.970951 -8.624560 0 0 0
189 0 1 -0.387131 0.688597 -7.847005 0 0 0
190 0 1 -0.060479 1.116803 -6.991749 0 0 0
191 0 1 0.134153 2.053554 -7.131147 0 0 0
159 0 1 1.086390 1.259474 -7.758749 0 0 0
15 0 1 -1.294740 -0.316284 -6.902147 0 0 0
11 0 1 -1.288710 -2.139642 -8.096362 0 0 0
10 0 1 -0.716091 -2.123432 -7.358963 0 0 0
32 0 1 1.688462 -1.560481 -6.634642 0 0 0
33 0 1 1.448272 -1.126041 -5.823717 0 0 0
16 0 1 -1.628885 -1.155990 -6.612851 0 0 0
14 0 1 -1.090458 -1.049673 -7.510231 0 0 0
17 0 1 -2.296288 -1.108412 -5.894453 0 0 0
18 0 1 -1.655159 -1.209101 -5.189417 0 0 0
25 0 1 0.983587 -0.611556 -6.855111 0 0 0
23 0 1 0.363552 -0.768870 -5.938123 0 0 0
22 0 1 -0.031950 -0.028552 -5.561221 0 0 0
27 0 1 2.409957 -0.391317 -7.591034 0 0 0
26 0 1 1.508349 -0.658045 -7.638932 0 0 0
34 0 1 2.162132 -0.604629 -6.180310 0 0 0
35 0 1 2.133965 -0.747032 -5.241935 0 0 0
158 0 1 0.981209 0.908100 -6.832793 0 0 0
193 0 1 0.754393 2.280736 -6.002590 0 0 0
192 0 1 1.056147 2.199216 -6.894086 0 0 0
156 0 1 0.959993 0.400188 -5.261285 0 0 0
157 0 1 1.054680 0.160127 -6.193907 0 0 0
7 0 1 -0.765244 -1.780114 -5.022440 0 0 0
8 0 1 -1.163757 -2.201245 -5.738575 0 0 0
6 0 1 -0.367414 -2.153773 -4.189090 0 0 0
9 0 1 -0.778487 -1.746098 -6.424066 0 0 0
21 0 1 0.134886 -0.163875 -4.547335 0 0 0
19 0 1 -1.700897 -0.311776 -5.084877 0 0 0
20 0 1 -0.800921 -0.293557 -4.811996 0 0 0
24 0 1 0.548184 -1.465138 -6.610113 0 0 0
153 0 1 0.432884 0.724204 -3.979543 0 0 0
36 0 1 1.957299 0.159707 -5.380163 0 0 0
38 0 1 2.404260 -0.951814 -4.123838 0 0 0
37 0 1 1.906877 -0.187689 -4.416374 0 0 0
155 0 1 1.493518 1.103606 -4.817118 0 0 0
154 0 1 1.407298 0.596519 -3.942507 0 0 0
195 0 1 -0.612265 2.327565 -6.045964 0 0 0
194 0 1 0.053448 1.639768 -6.074128 0 0 0
196 0 1 -0.343178 2.539882 -5.154262 0 0 0
197 0 1 0.446502 2.244360 -4.727525 0 0 0
39 0 1 2.056965 -0.511585 -3.382209 0 0 0
40 0 1 1.636270 0.010168 -2.717461 0 0 0
5 0 1 -0.650894 -2.436591 -3.344323 0 0 0
4 0 1 -1.210143 -1.688957 -3.422855 0 0 0
3 0 1 -0.480793 -1.040265 -3.507140 0 0 0
199 0 1 1.060995 1.960468 -2.943183 0 0 0
42 0 1 2.016456 0.995329 -1.600003 0 0 0
198 0 1 0.528555 2.031295 -3.786069 0 0 0
152 0 1 -0.343186 1.134272 -3.691065 0 0 0
151 0 1 -0.118647 1.704142 -2.942919 0 0 0
200 0 1 0.670041 1.094193 -2.813695 0 0 0
41 0 1 1.922142 -0.012111 -1.768842 0 0 0
1 0 1 0.179043 0.267606 -2.539158 0 0 0
2 0 1 0.136709 -0.718683 -2.846418 0 0 0
50 0 1 -0.173965 -0.133795 -1.773617 0 0 0
48 0 1 0.123090 0.743984 -0.532157 0 0 0
43 0 1 1.131530 1.089646 -1.863665 0 0 0
44 0 1 1.756718 1.925563 -1.973381 0 0 0
46 0 1 0.803169 1.493823 -0.913683 0 0 0
47 0 1 -0.054314 1.328542 -1.326096 0 0 0
45 0 1 1.108059 2.286513 -1.443502 0 0 0
49 0 1 0.399162 0.066643 -1.089453 0 0 0

Velocities

179 -0.348684 2.077321 -0.441424
180 0.021969 0.088751 -1.320044
181 -1.579141 -0.752784 -0.495860
177 0.452644 -1.956734 1.643824
178 0.469982 -0.391901 0.379525
176 -1.429853 0.847385 -1.888256
168 -0.868498 -0.578218 -0.480907
169 0.432311 -0.735680 0.971931
171 0.488018 -0.292816 -0.231429
170 0.492039 0.609526 -0.490349
182 -1.028886 0.940984 -0.041402
183 -1.288040 -0.083891 -1.176239
175 -0.099834 -0.742067 0.006845
174 -0.659739 0.598302 0.339099
172 0.439955 0.103697 -0.224093
173 -0.913041 0.083606 1.301411
167 -0.650104 -0.376295 -0.250846
166 0.968715 -1.003719 1.050387
184 -0.367216 -0.876053 -1.312921
186 -0.629871 0.674655 -2.310981
187 -2.466561 0.771341 0.443177
185 0.694575 0.321538 0.544615
188 0.785738 -0.945580 -1.210719
12 -1.809048 -1.412864 0.216409
13 0.458701 0.856294 -0.408636
165 1.715672 -0.352289 0.484420
164 0.532044 -0.338354 1.242808
163 0.334518 0.201256 -0.108373
162 0.231725 0.289265 1.290718
161 0.213600 1.287904 -0.041893
29 0.548527 0.263800 -0.016464
30 -3.087937 0.202346 1.236982
31 0.764302 1.710288 0.532313
28 0.334332 -0.988473 0.618266
160 -0.184135 1.185869 -0.691409
189 0.130331 -1.960468 0.497730
190 -0.266303 -0.782477 0.274305
191 0.474952 -0.073393 0.113203
159 0.583078 1.351519 0.422233
15 0.210168 -0.329894 -0.559652
11 0.213780 2.230029 0.021447
10 -0.102997 0.085523 0.498514
32 0.123735 -2.375741 1.221388
33 0.957888 1.458185 -0.418562
16 -0.298257 -1.047819 -1.446000
14 -1.170299 -0.982563 -0.619457
17 -0.334422 1.910547 -0.019947
18 0.448994 -0.139957 -1.043036
25 -0.495822 0.940516 1.392759
23 -0.610558 -0.192415 0.367009
22 1.076036 0.468354 0.043106
27 1.652037 1.271717 1.169699
26 -1.601951 1.318959 1.520199
34 -0.881538 -0.197591 -0.340900
35 -1.131325 -2.171458 0.698235
158 -0.187275 1.313833 -0.028491
193 -0.883192 -0.420373 -0.316816
192 1.906150 1.044781 1.793568
156 -0.191566 -0.376495 0.821474
157 -0.642028 0.116349 0.696816
7 -0.116350 0.714156 -1.140790
8 1.109789 -0.248279 -0.133620
6 1.031628 1.216594 0.194641
9 -0.400261 -1.445606 1.463871
21 -0.270652 -0.034143 -1.845314
19 0.871240 -0.695483 -1.086679
20 0.832591 -0.529283 1.113224
24 -0.327953 0.198496 0.257342
153 -0.671940 -0.449369 1.404557
36 1.152607 -1.430403 -1.390251
38 0.176365 1.607463 0.133947
37 1.178010 -0.122695 1.337913
155 -0.108812 -0.892995 -0.013787
154 0.480987 -1.383929 -0.669809
195 -1.105228 -2.064015 1.103708
194 -0.256426 -0.501306 -1.079964
196 -1.058780 0.593281 0.800565
197 -0.130890 0.085720 1.146156
39 1.235197 1.312216 -0.394935
40 0.351424 -0.365853 -0.917620
5 2.538926 -0.573260 -0.897046
4 0.299684 -0.490522 0.405212
3 0.752568 1.760915 -0.764247
199 -0.040679 -0.017204 -1.045947
42 -0.550351 1.857461 -0.032629
198 -1.063992 0.647746 -0.948855
152 -0.433547 -0.158649 -0.384814
151 1.397867 -1.180997 -0.380230
200 -1.297282 -1.968348 -0.759574
41 1.060648 0.468595 2.154250
1 0.247178 0.674368 2.509546
2 1.226145 0.745955 -1.082922
50 -2.445288 1.140729 0.564067
48 1.195626 -0.864658 0.397679
43 -1.022593 0.858877 -0.267067
44 -2.848923 0.988391 -1.271510
46 -0.138961 0.651949 0.248604
47 1.801309 0.083167 1.576004
45 0.180455 0.559987 -0.426672
49 0.357029 0.198048 1.892308

Bonds

1 1 1 2
2 1 2 3
3 1 3 4
4 1 4 5
5 1 5 6
6 1 6 7
7 1 7 8
8 1 8 9
9 1 9 10
10 1 10 11
11 1 11 12
12 1 12 13
13 1 13 14
14 1 14 15
15 1 15 16
16 1 16 17
17 1 17 18
18 1 18 19
19 1 19 20
20 1 20 21
21 1 21 22
22 1 22 23
23 1 23 24
24 1 24 25
25 1 25 26
26 1 26 27
27 1 27 28
28 1 28 29
29 1 29 30
30 1 30 31
31 1 31 32
32 1 32 33
33 1 33 34
34 1 34 35
35 1 35 36
36 1 36 37
37 1 37 38
38 1 38 39
39 1 39 40
40 1 40 41
41 1 41 42
42 1 42 43
43 1 43 44
44 1 44 45
45 1 45 46
46 1 46 47
47 1 47 48
48 1 48 49
49 1 49 50
50 1 151 152
51 1 152 153
52 1 153 154
53 1 154 155
54 1 155 156
55 1 156 157
56 1 157 158
57 1 158 159
58 1 159 160
59 1 160 161
60 1 161 162
61 1 162 163
62 1 163 164
63 1 164 165
64 1 165 166
65 1 166 167
66 1 167 168
67 1 168 169
68 1 169 170
69 1 170 171
70 1 171 172
71 1 172 173
72 1 173 174
73 1 174 175
74 1 175 176
75 1 176 177
76 1 177 178
77 1 178 179
78 1 179 180
79 1 180 181
80 1 181 182
81 1 182 183
82 1 183 184
83 1 184 185
84 1 185 186
85 1 186 187
86 1 187 188
87 1 188 189
88 1 189 190
89 1 190 191
90 1 191 192
91 1 192 193
92 1 193 194
93 1 194 195
94 1 195 196
95 1 196 197
96 1 197 198
97 1 198 199
98 1 199 200
99 1 1 50
100 1 151 200
