LAMMPS data file via write_data, version 29 Sep 2021, timestep = 53752000

100 atoms
1 atom types
100 bonds
1 bond types

-3.12 3.12 xlo xhi
-3.12 3.12 ylo yhi
-15.6 15.6 zlo zhi

Masses 

1 1

Atoms # angle

11 0 1 -0.135592 -1.834706 1.541141 0 0 0
13 0 1 1.179361 -2.296529 1.998480 0 0 0
12 0 1 0.286131 -2.150872 2.337556 0 0 0
10 0 1 -0.766528 -1.646211 0.796965 0 0 0
8 0 1 -1.447595 -1.945187 1.638523 0 0 0
9 0 1 -1.697297 -1.375041 0.852613 0 0 0
17 0 1 0.937030 -1.375886 2.955709 0 0 0
14 0 1 1.733314 -1.614116 1.600300 0 0 0
15 0 1 2.344094 -1.128157 2.248376 0 0 0
16 0 1 1.448603 -0.836211 2.346144 0 0 0
5 0 1 -0.437822 -2.269380 3.192594 0 0 0
6 0 1 -1.099104 -1.879358 2.628761 0 0 0
7 0 1 -1.659735 -1.211621 2.227551 0 0 0
18 0 1 1.499585 -1.300706 3.656930 0 0 0
28 0 1 -0.051094 -2.233913 5.124819 0 0 0
19 0 1 2.269367 -0.928011 4.066994 0 0 0
27 0 1 0.174365 -1.444661 4.640661 0 0 0
20 0 1 1.977136 -0.208230 3.531085 0 0 0
21 0 1 2.595137 0.036165 4.270446 0 0 0
22 0 1 2.151723 0.546813 4.962936 0 0 0
23 0 1 2.028319 -0.380608 5.221932 0 0 0
4 0 1 -0.935709 -2.069773 4.023327 0 0 0
30 0 1 1.675698 -1.654571 5.611203 0 0 0
29 0 1 0.959906 -2.087856 5.096654 0 0 0
200 0 1 -1.250134 -0.790503 5.165980 0 0 0
31 0 1 1.803455 -0.964879 6.222075 0 0 0
3 0 1 -1.497243 -1.654411 4.628119 0 0 0
2 0 1 -1.779441 -0.856217 4.184957 0 0 0
1 0 1 -1.682586 -0.019418 4.758710 0 0 0
50 0 1 -1.579631 0.200191 3.813442 0 0 0
26 0 1 0.721890 -0.850897 5.227825 0 0 0
151 0 1 -0.411807 -0.951562 5.601048 0 0 0
24 0 1 1.344320 0.143647 5.598329 0 0 0
25 0 1 0.445438 0.034144 5.359852 0 0 0
49 0 1 -1.269438 1.105167 3.940538 0 0 0
48 0 1 -1.509927 1.649437 4.699103 0 0 0
198 0 1 -1.407589 -2.095591 6.341869 0 0 0
199 0 1 -1.662159 -1.247462 5.934227 0 0 0
32 0 1 2.487694 -0.403574 6.540572 0 0 0
33 0 1 1.644345 0.158076 6.774192 0 0 0
157 0 1 -2.370212 -0.625189 7.825206 0 0 0
155 0 1 -1.094975 -0.801625 7.477042 0 0 0
156 0 1 -1.752381 -1.333906 8.024992 0 0 0
158 0 1 -2.534766 0.264623 7.304486 0 0 0
152 0 1 0.332106 -1.320740 6.162678 0 0 0
153 0 1 0.362652 -0.487919 6.629612 0 0 0
154 0 1 -0.393239 -0.989807 6.849643 0 0 0
47 0 1 -1.772028 1.923463 5.606588 0 0 0
46 0 1 -2.035036 1.067018 5.889820 0 0 0
45 0 1 -1.810318 1.512255 6.716532 0 0 0
196 0 1 -0.952521 -2.412839 7.761973 0 0 0
197 0 1 -0.673016 -2.470578 6.839564 0 0 0
34 0 1 2.100341 -0.308777 7.525539 0 0 0
36 0 1 0.911541 -1.351241 7.055500 0 0 0
37 0 1 0.282369 -2.044355 7.008006 0 0 0
35 0 1 1.581725 -1.119647 7.746388 0 0 0
159 0 1 -1.839096 0.205772 7.989890 0 0 0
160 0 1 -1.736098 0.006112 8.949624 0 0 0
41 0 1 -1.001825 0.638612 8.557513 0 0 0
43 0 1 -1.100859 2.086678 7.670884 0 0 0
39 0 1 -0.165317 -0.898209 8.307099 0 0 0
40 0 1 -0.368869 0.055497 8.175446 0 0 0
42 0 1 -0.818417 1.549348 8.456314 0 0 0
44 0 1 -1.264267 1.112244 7.426075 0 0 0
194 0 1 -1.347435 -1.833832 9.505589 0 0 0
193 0 1 -1.336818 -1.589969 10.431321 0 0 0
165 0 1 -0.216119 -0.644216 9.482173 0 0 0
38 0 1 0.003645 -1.694998 7.848878 0 0 0
168 0 1 0.413525 -2.386137 10.187782 0 0 0
195 0 1 -0.980543 -1.973940 8.648621 0 0 0
162 0 1 -2.309141 0.158234 10.627808 0 0 0
161 0 1 -2.344167 0.244089 9.685494 0 0 0
164 0 1 -0.675973 0.179012 9.735048 0 0 0
163 0 1 -1.386774 0.329251 10.335764 0 0 0
167 0 1 0.248860 -1.979108 9.332598 0 0 0
169 0 1 1.034412 -1.677937 10.391676 0 0 0
170 0 1 1.563155 -2.116460 11.054677 0 0 0
192 0 1 -0.602888 -2.133810 10.899703 0 0 0
191 0 1 -0.358000 -1.646016 11.657412 0 0 0
190 0 1 -1.340364 -1.741530 11.596217 0 0 0
166 0 1 -0.401931 -1.469732 9.852785 0 0 0
171 0 1 1.216295 -2.147109 11.926007 0 0 0
188 0 1 -1.333204 -1.463590 13.103127 0 0 0
182 0 1 0.246648 -1.895583 14.679349 0 0 0
181 0 1 1.184214 -1.988825 14.640959 0 0 0
175 0 1 0.238307 -1.204789 13.592212 0 0 0
174 0 1 -0.196818 -1.197554 12.742607 0 0 0
189 0 1 -1.576216 -1.047105 12.255031 0 0 0
187 0 1 -2.141530 -1.545268 13.626553 0 0 0
176 0 1 0.204679 -0.382251 14.089103 0 0 0
177 0 1 0.736355 0.430811 14.094376 0 0 0
172 0 1 0.884583 -1.859596 12.750624 0 0 0
173 0 1 -0.041909 -2.099157 12.515394 0 0 0
186 0 1 -2.393852 -0.653060 13.645719 0 0 0
185 0 1 -1.835560 -0.700987 14.447802 0 0 0
183 0 1 -0.702893 -1.864981 14.839509 0 0 0
184 0 1 -1.081558 -1.273912 14.215800 0 0 0
180 0 1 1.959170 -1.604508 14.380120 0 0 0
178 0 1 1.528506 -0.165061 14.283438 0 0 0
179 0 1 1.891919 -0.899042 13.786178 0 0 0

Velocities

11 2.054966 -0.624393 1.858917
13 0.320867 1.320990 -0.127350
12 1.971566 0.279990 -0.669981
10 0.625691 -1.054544 -0.111272
8 0.757836 1.922326 1.822660
9 0.142313 -0.730435 -1.060141
17 -1.259493 -0.031343 -0.537171
14 -0.473102 0.003675 -0.084754
15 0.044461 0.316679 -0.213337
16 0.019488 -0.298451 -0.954228
5 -0.921073 -0.279679 -1.119208
6 -0.115012 0.691091 -0.481885
7 0.280765 0.140111 0.307379
18 1.587324 0.919576 0.098624
28 -0.117268 1.438522 0.341790
19 -1.683449 1.148228 0.101360
27 -0.431777 -0.085319 -0.623512
20 0.281276 0.261715 0.902563
21 -0.993021 -2.246950 0.469248
22 -0.265789 -1.475159 1.527435
23 0.652680 0.067593 1.003141
4 1.158335 0.400230 1.208383
30 -0.377577 1.522501 -0.454425
29 -0.035059 0.146146 0.026825
200 -0.674844 0.442994 0.759175
31 -0.467758 -0.169992 0.087755
3 1.002705 0.652281 0.635319
2 0.268081 0.761428 -1.976241
1 1.041538 0.234398 -0.436445
50 -1.462796 -0.544795 1.276374
26 0.715874 0.322801 0.299790
151 -0.920818 0.614692 -0.269783
24 -1.113087 0.911369 -0.164077
25 0.632673 -0.753106 0.860993
49 0.593370 -1.697864 2.040624
48 -0.925730 1.623792 -0.929139
198 0.542720 -1.004876 0.112489
199 -1.476831 -1.191294 0.122887
32 2.603928 0.494608 0.510610
33 0.800729 0.368244 0.460464
157 0.871787 1.980748 -0.998234
155 0.401160 0.457975 -1.101584
156 -0.370016 1.621827 -0.833287
158 -1.412784 0.220153 0.009548
152 -0.414701 -0.932652 0.398186
153 0.160261 1.678145 0.155992
154 -0.038311 -0.694917 -1.860162
47 -0.741296 -0.515812 -1.623634
46 -1.624569 -1.245436 -1.237003
45 -1.107984 -0.360852 1.335796
196 0.561619 -1.858473 0.587556
197 -0.048099 0.933233 0.408104
34 0.493468 0.518521 -1.939622
36 -0.498521 1.060844 0.957226
37 -0.146065 0.510360 1.293735
35 1.862731 0.252924 -1.450122
159 -0.842228 -0.214052 -0.851606
160 0.584654 1.189771 -0.792355
41 0.870181 -1.203640 0.717043
43 -0.527687 -0.668720 1.237255
39 0.785111 0.604822 -0.213781
40 0.677787 -0.315924 2.227151
42 -0.348308 1.367199 1.146441
44 -0.682030 0.852043 -0.225721
194 -0.199709 -0.635629 0.079638
193 -0.787889 1.605843 1.338510
165 0.345874 -0.964998 0.907961
38 0.608764 1.884486 -0.059423
168 -0.314180 -0.595420 -0.193398
195 -0.251244 -0.272049 0.104388
162 0.121471 -0.286312 -1.339298
161 -1.757144 -0.844228 0.152719
164 0.354680 -0.370276 -0.589129
163 1.117793 -0.915931 0.191575
167 -0.588572 0.925090 -0.889308
169 -0.793087 1.169294 -1.414991
170 -1.293886 -0.403018 -0.719932
192 -0.340711 -0.368194 0.106244
191 0.932911 0.405410 -0.042156
190 -1.331942 -1.213336 -1.059999
166 -0.578871 -0.588724 -1.251456
171 0.609326 -0.357028 -0.054030
188 0.355614 1.748347 -0.073919
182 -1.304388 -0.710418 -1.291442
181 0.388914 -1.221513 -0.140132
175 -2.018777 1.002780 -2.316831
174 -1.416339 0.672675 -1.096969
189 -0.350280 0.134568 -1.409492
187 0.578895 -2.170557 0.061890
176 -0.625933 1.262684 0.308076
177 -1.109374 0.194040 -1.032303
172 0.125539 1.431944 1.029539
173 0.517260 1.657521 0.584250
186 -1.781941 -1.489689 0.484821
185 -0.294849 -0.241348 -0.344090
183 0.855965 0.757091 0.237325
184 -2.177650 -1.751530 1.520525
180 0.079835 1.452043 -0.956139
178 1.662770 -0.573784 0.874613
179 2.256105 -0.498862 0.699952

Bonds

1 1 1 2
2 1 2 3
3 1 3 4
4 1 4 5
5 1 5 6
6 1 6 7
7 1 7 8
8 1 8 9
9 1 9 10
10 1 10 11
11 1 11 12
12 1 12 13
13 1 13 14
14 1 14 15
15 1 15 16
16 1 16 17
17 1 17 18
18 1 18 19
19 1 19 20
20 1 20 21
21 1 21 22
22 1 22 23
23 1 23 24
24 1 24 25
25 1 25 26
26 1 26 27
27 1 27 28
28 1 28 29
29 1 29 30
30 1 30 31
31 1 31 32
32 1 32 33
33 1 33 34
34 1 34 35
35 1 35 36
36 1 36 37
37 1 37 38
38 1 38 39
39 1 39 40
40 1 40 41
41 1 41 42
42 1 42 43
43 1 43 44
44 1 44 45
45 1 45 46
46 1 46 47
47 1 47 48
48 1 48 49
49 1 49 50
50 1 151 152
51 1 152 153
52 1 153 154
53 1 154 155
54 1 155 156
55 1 156 157
56 1 157 158
57 1 158 159
58 1 159 160
59 1 160 161
60 1 161 162
61 1 162 163
62 1 163 164
63 1 164 165
64 1 165 166
65 1 166 167
66 1 167 168
67 1 168 169
68 1 169 170
69 1 170 171
70 1 171 172
71 1 172 173
72 1 173 174
73 1 174 175
74 1 175 176
75 1 176 177
76 1 177 178
77 1 178 179
78 1 179 180
79 1 180 181
80 1 181 182
81 1 182 183
82 1 183 184
83 1 184 185
84 1 185 186
85 1 186 187
86 1 187 188
87 1 188 189
88 1 189 190
89 1 190 191
90 1 191 192
91 1 192 193
92 1 193 194
93 1 194 195
94 1 195 196
95 1 196 197
96 1 197 198
97 1 198 199
98 1 199 200
99 1 1 50
100 1 151 200
