LAMMPS data file via write_data, version 29 Sep 2021, timestep = 1000

400 atoms
2 atom types
404 bonds
1 bond types

-50 50 xlo xhi
-50 50 ylo yhi
-50 50 zlo zhi

Masses

1 1
2 1

Atoms # angle

316 0 2 -0.383598416903917 -2.6431849041554965 -15.365184141460348 0 0 0
317 0 2 -1.0834062934816437 -1.9808125459736081 -15.40675117846195 0 0 0
315 0 2 -0.06074577814924652 -1.7989443543876151 -15.026465192646008 0 0 0
314 0 2 -0.43653619635149665 -1.6111260796032594 -14.140993891966584 0 0 0
318 0 2 -1.904720055873251 -1.4448460617074304 -15.337781116777387 0 0 0
319 0 2 -1.9417955148612207 -1.2162332725133915 -14.411738132572236 0 0 0
313 0 2 -0.4029031255755822 -0.6355605488081806 -14.365576819089949 0 0 0
295 0 2 0.9808139040454593 -0.8967967079811295 -14.923076038851436 0 0 0
294 0 2 1.2414568396956258 -0.31873023562393266 -14.12799013144224 0 0 0
296 0 2 1.6616570034443803 -0.20820211031100685 -15.012386997089814 0 0 0
309 0 2 -1.73393278906675 1.120685155125051 -15.121652813246406 0 0 0
312 0 2 -0.01709185658374031 0.30613239707349343 -14.441406385794359 0 0 0
310 0 2 -1.4906094399146494 0.12005035449271687 -15.000585040903347 0 0 0
311 0 2 -1.0007880223135779 0.32263897569346645 -14.18296751990692 0 0 0
308 0 2 -0.9064415220950579 1.2563641483620283 -14.677530479371663 0 0 0
297 0 2 2.106893797949494 0.4273691371261169 -14.353481321365939 0 0 0
307 0 2 -0.23830279425218376 1.9203900035414345 -14.46195847917827 0 0 0
306 0 2 0.6060512751203325 2.4199809474283187 -14.382053572225008 0 0 0
321 0 2 -1.8690888995137946 -1.1817241283446331 -12.964566088258199 0 0 0
320 0 2 -2.5716636568526665 -1.0114267227283218 -13.65251289490224 0 0 0
180 0 1 -2.0548899821527877 -0.05420004186811511 -12.75594667741434 0 0 0
322 0 2 -0.9369159891029446 -1.236417853176369 -13.19478733521473 0 0 0
181 0 1 -1.062336093214217 -0.28686865137113843 -12.666827594724321 0 0 0
292 0 2 1.1543291252002517 -0.059100759394144074 -12.61966513737142 0 0 0
293 0 2 1.782609321624886 -0.3878474505265438 -13.276672999634544 0 0 0
179 0 1 -2.476625070710429 0.783790569819405 -12.885790045267854 0 0 0
178 0 1 -1.8354898819972116 0.8764462728694178 -13.621341883698884 0 0 0
177 0 1 -1.1907213689365856 0.8652092828164336 -12.887529704202521 0 0 0
299 0 2 0.9773432828193379 0.7754993446183801 -13.172240998875633 0 0 0
298 0 2 1.939172794921755 0.8081542499401428 -13.422713256015204 0 0 0
176 0 1 -1.1693897918797234 1.8810898774762357 -13.04349725692848 0 0 0
305 0 2 1.4931807567164084 2.5194631326802415 -13.91821204321167 0 0 0
301 0 2 0.8036512583072161 1.789132369377264 -13.109279876378839 0 0 0
303 0 2 1.6164653548058792 2.629570222392606 -12.83956924746 0 0 0
304 0 2 2.108286877650687 1.9479366751425018 -13.40687288000361 0 0 0
168 0 1 -1.0825699642789721 -2.1486576366627133 -11.138097390218789 0 0 0
324 0 2 0.041251194797565234 -1.9591090373274969 -11.731646363192072 0 0 0
325 0 2 0.8675917426813087 -2.2852397552553705 -12.147281576977099 0 0 0
326 0 2 0.7287204626226877 -2.987624700507917 -11.473343436542624 0 0 0
327 0 2 1.2506720001824418 -2.239460933730268 -11.017279204596734 0 0 0
172 0 1 -1.7646420995202623 -0.7269696369871609 -11.091159843218076 0 0 0
323 0 2 -0.6425907394988077 -1.5350647564491826 -12.26649864140868 0 0 0
170 0 1 -0.5260360613780533 -0.8489975809751048 -11.007656448556048 0 0 0
173 0 1 -1.7408173923642578 0.16439653389796757 -11.56960577685531 0 0 0
182 0 1 -0.6961511838665924 0.41973775418473086 -11.996499417223257 0 0 0
174 0 1 -1.4358110057701257 1.0870500214549554 -11.838271406555736 0 0 0
300 0 2 1.273525564264269 1.283046589567017 -12.382680147136025 0 0 0
183 0 1 0.17482318034983138 0.5530611396110918 -11.555462556400308 0 0 0
291 0 2 1.8278536719919098 0.20784416801069805 -11.828094244194617 0 0 0
290 0 2 2.4479941020731633 0.43249654357744255 -11.077598093928954 0 0 0
175 0 1 -1.6360114848220655 1.9889225955401808 -12.22763175620006 0 0 0
302 0 2 0.78519575941132 2.368528426039219 -12.299038558797605 0 0 0
283 0 2 0.4076475933698605 1.7888467672372355 -11.031126043811161 0 0 0
166 0 1 -1.8260688515855128 -1.8457835977233343 -9.954695936065193 0 0 0
167 0 1 -1.0701658225353408 -2.3993533514771515 -10.187820276445041 0 0 0
169 0 1 -0.4457697209787885 -1.6830934904894148 -10.540288655615612 0 0 0
328 0 2 0.9067128593689111 -2.667089586713707 -10.165241897240271 0 0 0
165 0 1 -1.7493714737314567 -0.8503050045901517 -10.10619814669752 0 0 0
171 0 1 -1.132005244674029 -0.05734523641226605 -10.736981380953194 0 0 0
164 0 1 -1.022863472041308 -0.8064865982350803 -9.415600536986734 0 0 0
186 0 1 0.5270040648015382 -0.28783488055205064 -9.607953438314466 0 0 0
185 0 1 0.6527126355584005 -0.4754051699611311 -10.590152536733035 0 0 0
289 0 2 1.8367592536878266 -0.23460526870668041 -10.696112153177504 0 0 0
288 0 2 1.930549735515946 -0.22541418347321587 -9.736832634341122 0 0 0
275 0 2 -2.759879193225249 1.3112064631572147 -10.51156471668907 0 0 0
274 0 2 -2.4125310869121384 0.791853267658134 -9.720063469732093 0 0 0
184 0 1 -0.0971967115347907 0.1769362347750513 -10.639767135708043 0 0 0
187 0 1 0.5414642245797784 0.6596865123311797 -9.846282249872608 0 0 0
286 0 2 2.1424897075734446 1.494536186880808 -9.880422094229571 0 0 0
276 0 2 -2.8140751909547386 2.34593462372761 -10.443627010095197 0 0 0
277 0 2 -2.050872467716305 2.686698092041692 -10.067886055238821 0 0 0
281 0 2 -0.16889001506241144 2.5532758460450733 -10.208778520472878 0 0 0
282 0 2 0.08468576340103895 1.584422481259691 -10.090158468352895 0 0 0
284 0 2 1.3924441206517881 1.785500794603176 -10.81022810443125 0 0 0
285 0 2 1.1877432159403667 1.7716803097257878 -9.79873143867939 0 0 0
279 0 2 -0.9397332769435045 3.5926834105203125 -9.640036385122325 0 0 0
280 0 2 0.0006819771506552073 3.5296549710643164 -9.94542632205504 0 0 0
12 0 1 -0.5414304641810366 -1.893028490702906 -8.167433243763274 0 0 0
11 0 1 -0.9303857750053309 -2.7843925146007757 -8.018260895232903 0 0 0
13 0 1 -1.4807805914034375 -1.6176117175911946 -7.847694555226158 0 0 0
329 0 2 0.6187234315662067 -2.6577156667677966 -9.194231366368852 0 0 0
330 0 2 0.3834202977073205 -2.4969214330593954 -8.195083429236563 0 0 0
163 0 1 -0.5751293499326107 -0.508636317395624 -8.57625846825906 0 0 0
162 0 1 0.27566244845149185 -0.8117458757703775 -8.164126072733028 0 0 0
29 0 1 1.3907687923129213 -1.3601715967379622 -8.531272374904328 0 0 0
28 0 1 2.076170297976356 -0.6982689113745545 -8.428633472136847 0 0 0
27 0 1 2.853917824349878 -0.14174215161932663 -7.98655726602654 0 0 0
273 0 2 -2.1395442168093926 0.8455080845082402 -8.728511669998092 0 0 0
272 0 2 -1.78305949690754 1.3429744749456445 -7.902934588558972 0 0 0
188 0 1 0.5621844853323904 1.0979269814874595 -8.965584140244792 0 0 0
160 0 1 1.2323671371403806 0.4984069184105397 -8.27293927406113 0 0 0
159 0 1 1.0530706176149658 1.4606142547364782 -7.994487644020508 0 0 0
287 0 2 1.9112539760478477 0.6855944361792257 -9.314378135740766 0 0 0
189 0 1 0.0019381290092981233 1.9734482592654936 -8.951890524886142 0 0 0
190 0 1 0.27052025421690534 2.2212686235279837 -8.038014365204907 0 0 0
278 0 2 -1.765232206774042 3.130721748651212 -9.251933419096176 0 0 0
10 0 1 -1.4248638673633078 -2.6690137750867406 -7.151856882791007 0 0 0
332 0 2 -0.218355990607038 -2.7616441324821275 -6.677268627059559 0 0 0
30 0 1 1.3635266567484305 -1.8376050291026949 -7.655879128982362 0 0 0
331 0 2 0.29476593268514667 -2.101381360742062 -7.307284991781802 0 0 0
31 0 1 1.9391483460007128 -2.2115437660323987 -6.864090706569713 0 0 0
16 0 1 -1.8403535216040676 -0.9074325995533553 -6.708621693242441 0 0 0
15 0 1 -1.1367363293438777 -0.5485912825243277 -7.290644386355187 0 0 0
14 0 1 -0.8092670988522445 -1.474197409661314 -7.091984177699519 0 0 0
161 0 1 1.1740091639790273 -0.4195190044926905 -7.802636508646269 0 0 0
24 0 1 1.0949309835405932 -1.2885856332661938 -6.694485304884887 0 0 0
25 0 1 2.0485378048151386 -1.1833794719577353 -6.692204193660068 0 0 0
26 0 1 2.6652622308740717 -1.017373699512094 -7.476384699773682 0 0 0
271 0 2 -2.1759460066973046 1.5404584384024291 -7.012653770376443 0 0 0
158 0 1 0.22340880805283359 1.1602739439816079 -7.545316501092808 0 0 0
157 0 1 0.2948831224408196 1.0540058628642823 -6.571858840021628 0 0 0
270 0 2 -1.9269744215492162 2.2416230223326776 -6.4130816546401475 0 0 0
191 0 1 0.6794414198377318 2.116026212762792 -7.160667095758862 0 0 0
192 0 1 1.2914369849579153 2.3179931876895727 -6.405892501407085 0 0 0
9 0 1 -1.290113326577566 -3.0497687891168406 -6.21901868673401 0 0 0
8 0 1 -1.1285357683013735 -2.6380038411722104 -5.3444185814016665 0 0 0
18 0 1 -1.505811631162968 -1.7278729560315707 -4.989682022600195 0 0 0
333 0 2 0.3670053893979185 -2.3787313891849817 -5.950892031965054 0 0 0
334 0 2 0.7350861967781104 -1.8303057502920241 -5.2687561580394275 0 0 0
32 0 1 1.647157448124173 -1.966084377011421 -6.010599430934509 0 0 0
17 0 1 -1.8629220240587645 -1.526454355644536 -5.932324317722777 0 0 0
19 0 1 -1.2816336276070175 -0.7522761911523296 -4.971589697188704 0 0 0
22 0 1 -0.30086234715884225 -0.6383706986566606 -5.584089322498561 0 0 0
23 0 1 0.5889429450142598 -0.8232571453285152 -6.022874536364093 0 0 0
33 0 1 2.197249803927372 -1.4560903926881126 -5.363859909083574 0 0 0
34 0 1 2.032785828312949 -0.525736544294143 -5.8348069516594405 0 0 0
35 0 1 3.028487236843841 -0.5117973656381953 -5.653435281147424 0 0 0
37 0 1 2.199472172530317 -0.14062428295724455 -4.799674662405465 0 0 0
268 0 2 -2.3415950826471454 1.3070359494367918 -5.707838815826532 0 0 0
269 0 2 -1.46141963019741 1.4329772721016159 -6.143695788129572 0 0 0
21 0 1 -0.2029059661522809 0.16654987862074006 -5.096400021215503 0 0 0
156 0 1 1.0197168018455542 0.7781256182602437 -5.863734900099291 0 0 0
155 0 1 1.587940659135619 1.0652380923723446 -5.066541498031419 0 0 0
36 0 1 3.095853255635737 0.24108146980987416 -4.919448905444657 0 0 0
267 0 2 -1.7591943792731366 1.6177765564134727 -4.926833358768977 0 0 0
195 0 1 -0.39130784958683035 2.9543919941335646 -5.564673597139954 0 0 0
196 0 1 -0.21745930184965226 2.2940418128872735 -4.790286803591904 0 0 0
194 0 1 -0.08041789830455673 2.1556151953197595 -6.03031626079004 0 0 0
193 0 1 0.8233671924726274 1.9299888874656461 -5.609310364935099 0 0 0
7 0 1 -0.6711550422180564 -2.6270005588525707 -4.444834635166224 0 0 0
6 0 1 -1.5590955916968892 -2.5462846496125744 -4.132385038558222 0 0 0
5 0 1 -0.9449593664963634 -2.793205704363336 -3.367659234559931 0 0 0
335 0 2 0.9024317713562324 -1.821620815802764 -4.350778197016445 0 0 0
336 0 2 1.2370067225347345 -2.0107173587229576 -3.459754056754257 0 0 0
264 0 2 -2.159354417214979 -0.49680713210755306 -3.169300331637697 0 0 0
20 0 1 -0.6881929299454583 -0.2728835933074648 -4.354049718558535 0 0 0
3 0 1 -0.75718116562313 -1.096164627951857 -3.612186986883997 0 0 0
38 0 1 3.0499845412495605 -0.6594492187002254 -4.548958694667612 0 0 0
39 0 1 2.8707834440386586 -0.6649960422960532 -3.561596869769422 0 0 0
266 0 2 -1.4844158484337249 0.7757313743995848 -4.45915046619237 0 0 0
265 0 2 -1.5096322477306319 0.0349063912999152 -3.765301422324956 0 0 0
152 0 1 -0.31174726676712244 1.1250614449731275 -3.8928633366278036 0 0 0
153 0 1 0.5448632519193038 1.1594910077524734 -4.510803704170564 0 0 0
154 0 1 1.477021146487829 1.4334420209556065 -4.1772937991471615 0 0 0
199 0 1 0.6809746968698412 1.159233291412719 -3.2949302264597877 0 0 0
197 0 1 0.7318103458660672 2.2217289709964056 -4.6872294633979505 0 0 0
198 0 1 0.3092391506998455 1.9898158122891008 -3.7267768570875837 0 0 0
4 0 1 -0.7161565897276982 -1.859359553430946 -2.9785705139072376 0 0 0
52 0 1 -0.19772329023656407 -1.9321440059393562 -1.7700898227258968 0 0 0
337 0 2 0.8025403731110957 -2.592611121810893 -2.8270512756571793 0 0 0
338 0 2 0.6096822130940439 -1.619170528392809 -2.6111146979837554 0 0 0
263 0 2 -2.2801053503492943 -0.4736533205169271 -2.1962199280052475 0 0 0
50 0 1 -0.0718682794935177 -0.1942134475543066 -2.026465045226582 0 0 0
2 0 1 -0.48737565907167857 -0.5095480177022744 -2.9147705221274958 0 0 0
339 0 2 1.4372593644056404 -1.3837974344145836 -2.0279942058807428 0 0 0
1 0 1 0.4818155757112598 -0.2337140208550879 -2.824748511460599 0 0 0
41 0 1 2.258278942001122 -0.15852678711868076 -1.9789761036661206 0 0 0
40 0 1 2.2285906847590966 -0.6560832538797454 -2.8022849568922723 0 0 0
262 0 2 -2.418300383847028 0.38180368295798167 -1.691417525203828 0 0 0
149 0 1 -1.6124601967677608 1.1195409242487329 -2.205931151543518 0 0 0
150 0 1 -1.0498434008776358 0.9201134495776799 -3.0194989479232888 0 0 0
151 0 1 -0.23122042622269579 1.4825674751533386 -2.9459580978339313 0 0 0
200 0 1 0.1603117369487132 0.6744688970206023 -2.5166937747329277 0 0 0
43 0 1 2.3903135027178624 1.4639761791950745 -2.0963432683994054 0 0 0
42 0 1 2.8259029244635894 0.5697884595276101 -2.259866719465149 0 0 0
148 0 1 -1.5258207495495477 2.0371453207698234 -1.8006638215953517 0 0 0
44 0 1 1.9829663707285714 2.2819298350951582 -2.5159835556598784 0 0 0
45 0 1 2.0223450571454684 2.4922754438804353 -1.5941077014458824 0 0 0
57 0 1 -1.9311578976436632 -1.8972046970900158 -1.1812959918922834 0 0 0
53 0 1 -0.30686511035651887 -2.941389762015677 -1.5538151974589607 0 0 0
56 0 1 -1.2680982297369694 -2.5684031892298513 -0.8986893861327836 0 0 0
55 0 1 -0.6134683677591969 -2.029710928827175 -0.3575347983677782 0 0 0
54 0 1 0.13799559196241157 -2.51172788774471 -0.704539325415823 0 0 0
340 0 2 1.554171509403262 -2.03450445940588 -1.3266762346436667 0 0 0
342 0 2 0.8557644135235194 -1.7420739101981877 -0.3474407008967306 0 0 0
58 0 1 -1.1183881887109401 -1.3353146647634162 -1.1228626787093583 0 0 0
59 0 1 -0.6208047895889787 -0.5973826219602387 -0.5159802857420641 0 0 0
341 0 2 1.3745246550207932 -1.1120470655587584 -0.9127138460165723 0 0 0
51 0 1 0.08806738526607255 -0.9664398331150909 -1.4417571653423293 0 0 0
261 0 2 -2.306640895561364 1.303432300077575 -1.3264305961902731 0 0 0
259 0 2 -2.060006937141126 0.44507346907979145 -0.047604175939442064 0 0 0
260 0 2 -1.518471391198147 0.8160701327466514 -0.7893029270226839 0 0 0
60 0 1 -0.9727354669372853 0.2659481850644042 -0.12052462255596001 0 0 0
141 0 1 1.3466332072229665 0.35815879639920545 -0.054216918555470645 0 0 0
48 0 1 0.051619524909578884 0.9397091552938145 -0.5794719768762827 0 0 0
49 0 1 0.2546904067315645 0.13257493740860182 -1.1713809736289413 0 0 0
142 0 1 1.9081825869869173 1.0853644890963272 -0.3380637580167736 0 0 0
147 0 1 -1.129067023698685 2.8817376962207137 -1.38859461843646 0 0 0
146 0 1 -0.4054413676472879 2.8731859520450125 -0.6758629794322736 0 0 0
47 0 1 0.4640321036152884 1.5715054621566913 -1.2391875324730288 0 0 0
46 0 1 1.0421170551886119 2.2937865550193335 -1.5262137900889454 0 0 0
143 0 1 1.180193220246891 1.7897056895304928 -0.3744930609871297 0 0 0
209 0 2 -1.7801683770876053 -2.1942757113598303 1.1748191753376425 0 0 0
211 0 2 -0.8190571516673457 -2.033510073081727 0.8410847154270449 0 0 0
210 0 2 -1.4868023807901967 -2.697728940848838 0.33493315352419706 0 0 0
212 0 2 0.010249686338941542 -2.0881107014037177 1.3667015077143143 0 0 0
258 0 2 -2.1271683224521682 -0.4113024536210749 0.42856699058853853 0 0 0
257 0 2 -1.3837839195748025 -0.16788929371687175 1.0546255005359582 0 0 0
343 0 2 0.1468139362521558 -1.262834410002201 0.25965009302251824 0 0 0
344 0 2 0.5840371054186949 -0.9288622279978341 1.072288040381003 0 0 0
214 0 2 1.6327696439106605 -1.4631087935176494 1.178419348864129 0 0 0
62 0 1 -1.4282034918322586 1.4512947752329255 0.7570033397387512 0 0 0
61 0 1 -0.7117584825212188 1.1980622658889608 0.14557479576231913 0 0 0
140 0 1 0.42801153348519694 0.14106628571009536 0.4370109295682669 0 0 0
139 0 1 0.6340461442612556 0.13241959892837316 1.357488189174858 0 0 0
137 0 1 2.093406395556045 1.0550021104318053 1.3784720273517514 0 0 0
63 0 1 -0.966171076436626 2.2084903296375145 1.2337152177232118 0 0 0
64 0 1 -0.027459353651399482 2.0171621809298927 1.1417498887314441 0 0 0
144 0 1 1.047419442685534 2.3193482157697165 0.4228144416040721 0 0 0
145 0 1 0.21092040322973218 2.5385060821099983 0.009994022697565306 0 0 0
208 0 2 -1.1266612660166002 -1.8119199409936126 1.8579837203451264 0 0 0
205 0 2 -0.7345372628566674 -2.1628028320109767 3.035056391519202 0 0 0
213 0 2 0.9563604137235915 -2.067382547598633 1.6629055097789815 0 0 0
217 0 2 1.4037749586404238 -1.593366130408649 2.967157221845296 0 0 0
215 0 2 2.2706898337702768 -1.6319788229561196 1.914997576466887 0 0 0
207 0 2 -1.6017476057425581 -1.017485715159809 2.2592833091121975 0 0 0
348 0 2 -0.6483995908105331 -0.19456275263523123 2.9992534596782847 0 0 0
345 0 2 0.07953901226585272 -0.6297268478300276 1.8576475207473095 0 0 0
347 0 2 0.2025466206254602 -0.7280861478958291 2.8689103147960306 0 0 0
216 0 2 1.7475938414888168 -0.8971380974811766 2.3444166338777057 0 0 0
254 0 2 -2.200225140023495 0.5654716251407312 1.9421457402667297 0 0 0
255 0 2 -1.5694202310676753 0.04711044554254739 2.498133233597406 0 0 0
253 0 2 -2.378161824199105 1.386032685617687 2.4517301764581583 0 0 0
65 0 1 -0.07196548716869583 1.1750811557262526 1.694514291120663 0 0 0
346 0 2 -0.0025148962129193167 0.2039363494686655 2.383898519866536 0 0 0
256 0 2 -0.9196684201142583 0.30763713964174016 1.772470958723486 0 0 0
138 0 1 1.4885079584012075 0.4458708491306782 1.8223563393116335 0 0 0
133 0 1 0.6890889862300402 0.9525685682816536 3.1220381097364367 0 0 0
135 0 1 1.806944993155605 1.1387739662402117 3.0233875992560484 0 0 0
66 0 1 0.570202799622026 1.7730732473861612 2.149096819206037 0 0 0
67 0 1 0.9002036323639181 2.265059140386591 2.962774477439388 0 0 0
136 0 1 1.8959516930383866 1.632769896148194 2.1979485626894864 0 0 0
202 0 2 -2.12453283314866 -2.014656729529638 4.088422795378887 0 0 0
204 0 2 -1.0010850633270147 -3.0452693371322908 3.4563888175366237 0 0 0
203 0 2 -1.5173055739619437 -2.84609157837136 4.252638312532863 0 0 0
227 0 2 0.8205987384681371 -1.594218566013912 4.026649004173156 0 0 0
228 0 2 0.09925728847246591 -2.279807643266634 3.9735496176445997 0 0 0
218 0 2 1.8741179700291786 -2.325078719612143 3.4246314786599634 0 0 0
251 0 2 -1.8610764623778102 -0.17274818383145502 3.4852453447312497 0 0 0
250 0 2 -2.209692437389842 -0.042387211074032705 4.401448478728729 0 0 0
201 0 2 -2.251912671524591 -1.092786313803044 4.457459912250202 0 0 0
206 0 2 -1.0726592664257366 -1.2227208173746928 3.129889383540137 0 0 0
350 0 2 -0.6766636661246257 -0.7301725565797983 4.387919563330757 0 0 0
349 0 2 -0.09319173981573993 -0.17831408313871105 3.8368516876787786 0 0 0
226 0 2 0.7512815943845141 -0.6663701794798149 4.370097482738955 0 0 0
219 0 2 1.97782957880724 -1.3974489866912208 3.8227516806544086 0 0 0
220 0 2 2.1471969025871678 -0.3946402174930319 3.934559594607699 0 0 0
252 0 2 -2.087182309345293 0.76289383364485 3.170946068972187 0 0 0
249 0 2 -1.430665859818016 0.5485270385875242 4.092706540541155 0 0 0
134 0 1 1.2382412666150164 1.426394998582484 3.7555351758197753 0 0 0
221 0 2 1.8286933508484333 0.21775370957865797 4.631887888502542 0 0 0
132 0 1 -0.0038811714072657377 1.6361861580859096 3.2181959498929253 0 0 0
130 0 1 -1.0561134065091937 2.2172527999722935 4.647078134365464 0 0 0
131 0 1 -0.7385885652557033 2.0505907473962828 3.7055004893160817 0 0 0
68 0 1 1.121497957255439 2.6852215921534546 3.8136763231406716 0 0 0
69 0 1 0.7106847727595802 3.1260277702523536 4.622730631288023 0 0 0
229 0 2 0.7635328522514168 -2.3313502104590538 4.689458814638947 0 0 0
230 0 2 0.8132985341473964 -1.802393584699758 5.557021951188497 0 0 0
231 0 2 1.7732295083690497 -1.9647168413728604 5.5474750463175635 0 0 0
399 0 2 -2.0325755570765818 -1.438536786098243 6.140297046828159 0 0 0
400 0 2 -1.8023940765583395 -0.825609715995402 5.327404265271714 0 0 0
351 0 2 -0.8181054959717372 -0.8103837969792076 5.383106170476027 0 0 0
352 0 2 -0.04593197818628985 -0.40503937697215914 5.943049228922335 0 0 0
225 0 2 1.0607708665137916 -0.2663685027152302 5.246218865125649 0 0 0
232 0 2 2.1165928849282762 -1.1000150105237918 5.8565081266139565 0 0 0
247 0 2 -1.3573436186571877 1.3238602286360333 5.482809685798944 0 0 0
248 0 2 -1.3975387879467154 0.35811697957797584 5.083519767062812 0 0 0
224 0 2 1.0670414969334763 0.7238459609283393 5.202265322594033 0 0 0
128 0 1 0.1648587418391785 1.023467091084534 5.7854708577530785 0 0 0
223 0 2 1.6733360468282958 0.8208980431796623 5.933999720579017 0 0 0
222 0 2 2.1408891144276905 1.0616981862246555 5.038260877805694 0 0 0
129 0 1 -0.3821857002561783 1.7428837944082627 5.252413619614934 0 0 0
70 0 1 1.4270502928129012 2.6773833064229726 5.072871050918304 0 0 0
71 0 1 0.7303527225752257 2.0632473218189826 5.511949811613731 0 0 0
398 0 2 -1.205517520803307 -1.8802401411722471 6.543753318004306 0 0 0
397 0 2 -0.9580915007868064 -2.3345197238365625 7.37101147895721 0 0 0
237 0 2 0.2564126605522616 -2.2925520981453533 7.359377471048967 0 0 0
236 0 2 1.0699222273844986 -1.8379523487267433 7.697861949590201 0 0 0
355 0 2 -1.8137002046161896 -1.2161389843293071 7.340507377345434 0 0 0
354 0 2 -1.2479212434545877 -0.43427274125646986 7.513929702528732 0 0 0
353 0 2 -0.8821872264288104 -0.3007975890121376 6.579166472998503 0 0 0
239 0 2 -0.2537773698218524 -0.8516445958706871 7.715039201371882 0 0 0
235 0 2 1.3774644874634872 -0.926081201172756 7.60676888950345 0 0 0
233 0 2 1.3870343629798154 -0.8618003982485402 6.511566636781111 0 0 0
234 0 2 1.6950452325021244 -0.11474133677988317 7.0829307405015705 0 0 0
245 0 2 -2.1760261354249746 1.2556229124076712 6.501035835711858 0 0 0
246 0 2 -1.2599908941966864 0.8501112362857733 6.337842254951309 0 0 0
73 0 1 0.7307353693474155 1.0329396220213258 7.041677312405192 0 0 0
75 0 1 2.3508824360297944 1.3109243527303855 7.73292033958393 0 0 0
74 0 1 1.6997545224194521 1.303600303721588 7.020973648725828 0 0 0
76 0 1 2.5613810968383315 0.4124075617803952 7.439022843110744 0 0 0
244 0 2 -1.4970204204967092 1.6255057117898841 7.015665052556983 0 0 0
127 0 1 -0.05421566010091947 1.6178426838381057 6.58069426703322 0 0 0
72 0 1 1.051356194041374 1.6072352533453749 6.3071689757265785 0 0 0
126 0 1 0.30436467832557984 2.4793006180199963 6.973632062034197 0 0 0
395 0 2 -1.704753170341755 -1.7742729338507448 8.453001770588472 0 0 0
396 0 2 -1.1458805145555953 -2.6062001358950653 8.341362011617464 0 0 0
238 0 2 -0.13467025148745393 -1.7594297496402327 8.14446179659224 0 0 0
357 0 2 -3.0693248753866613 -0.6152856235856045 8.071253396746485 0 0 0
356 0 2 -2.110739279456551 -0.8615088262579818 8.204291082085158 0 0 0
360 0 2 -2.671518592378555 -0.0077841063762646295 9.197764134126006 0 0 0
364 0 2 -0.788051294070474 -0.3208764424566703 9.109995630742072 0 0 0
81 0 1 1.2089215932164112 -0.10116281175492256 8.92610283501316 0 0 0
80 0 1 1.307014195659205 -1.1206875557503526 8.86689050386316 0 0 0
240 0 2 0.3601122013641842 -0.15745167215349704 8.147113116168732 0 0 0
365 0 2 0.17840034168791294 -0.5576402512348222 9.160782496345098 0 0 0
78 0 1 2.605142118886572 -0.6772498734252337 9.05730034210698 0 0 0
77 0 1 2.6336553954786286 -0.19232319064729936 8.189100790837461 0 0 0
358 0 2 -2.69305284985558 0.3375374772854228 8.1781057361134 0 0 0
359 0 2 -1.8730780159757434 0.47002949569398245 8.76562012876126 0 0 0
241 0 2 -0.02083368751993793 0.7596008524007942 8.217155300130631 0 0 0
243 0 2 -1.058649328728868 1.90462305390243 7.873404938125684 0 0 0
242 0 2 -0.36762135778293964 1.6717067421338805 8.539693044143204 0 0 0
125 0 1 0.23612211504210137 2.36256251261018 7.939568439304379 0 0 0
123 0 1 0.779098352559497 1.9955974674629322 8.805284649505573 0 0 0
124 0 1 1.2102896041398605 2.576107778628188 8.091162403941448 0 0 0
394 0 2 -1.8161248845567792 -1.7047217457788189 9.461631695397541 0 0 0
367 0 2 -0.14238298486450837 -1.9999546177903336 9.963492797868513 0 0 0
393 0 2 -1.2069142372450614 -2.2974283777337363 9.961559429051908 0 0 0
392 0 2 -0.9732909857974514 -2.696792297764619 10.856224470079443 0 0 0
368 0 2 0.7014980629678685 -1.6228676990254314 9.654923479517858 0 0 0
369 0 2 1.1661532700651878 -2.3024110143997927 10.256915982663294 0 0 0
370 0 2 1.6449866895430112 -1.7712538505908422 10.934430119675334 0 0 0
362 0 2 -1.9182334683534952 -0.8588816172254665 10.565629291590955 0 0 0
361 0 2 -2.681191826108022 -0.5321633975578379 10.011448245415501 0 0 0
366 0 2 -0.4436530048800678 -1.0914680193011048 9.735508606323231 0 0 0
114 0 1 -0.5910769117059328 -0.5234670416003534 10.872095822857556 0 0 0
363 0 2 -1.354380185035596 -0.4279008932735322 9.883893751741939 0 0 0
83 0 1 1.3974110464575846 -0.7719391873615997 10.650425013589395 0 0 0
82 0 1 1.3157838179300931 -0.07414704899822097 9.95244748689439 0 0 0
79 0 1 1.890792568833826 -1.0203266099114277 9.653685218651097 0 0 0
116 0 1 -1.7983958871042158 1.0304024394420388 10.613646702337277 0 0 0
119 0 1 -0.8717678890333951 1.5198750157411856 10.765668562132515 0 0 0
115 0 1 -1.3529252860363763 0.1612395866356674 10.832750585665995 0 0 0
122 0 1 0.8994769433895211 1.339140547663023 9.620514572412239 0 0 0
86 0 1 1.3656109055112187 1.0302829270422569 10.52974279919787 0 0 0
85 0 1 2.257776819737608 0.6663983299775695 10.25890993303111 0 0 0
84 0 1 1.904700112154232 0.0049619761524782036 10.881579194701779 0 0 0
118 0 1 -1.2467940790656171 2.3506371441637173 10.411850959523143 0 0 0
121 0 1 0.8083577439462839 2.2679955051862972 9.99500166604283 0 0 0
120 0 1 0.1301768747241784 1.7324204892605022 10.450870001271443 0 0 0
391 0 2 -1.0630746573624559 -2.6357822907791153 11.855362875385646 0 0 0
390 0 2 -1.084485708508639 -1.5950849046721098 11.898934175848183 0 0 0
371 0 2 1.331683145398062 -2.618549294744187 11.428973234461854 0 0 0
372 0 2 1.1047248095362086 -2.7362031249156282 12.41467554301973 0 0 0
113 0 1 0.22846476279191724 -1.089263756249581 10.96934471327061 0 0 0
112 0 1 0.7195717793882904 -0.8745588210055729 11.821804359319803 0 0 0
111 0 1 1.732295882132363 -0.6088330013909613 11.995954622102818 0 0 0
89 0 1 0.5065644152326283 1.4625818147918612 11.67708320678274 0 0 0
117 0 1 -1.89210981858198 1.9104590926447582 11.037301080425888 0 0 0
88 0 1 0.9460594582746611 2.2715602222248283 11.899755932699156 0 0 0
87 0 1 1.5311741899234605 1.599040043635016 11.357254373735072 0 0 0
389 0 2 -1.4553187484830008 -2.1269987538079422 12.680710749914306 0 0 0
374 0 2 -0.06679584030157036 -2.3151159484938493 13.878938663856436 0 0 0
373 0 2 0.38391157259316555 -2.332793426661929 12.987971093016634 0 0 0
387 0 2 -1.9937078710895153 -1.4987474014196251 13.49825334030996 0 0 0
388 0 2 -1.723021527397447 -1.1267729689551067 12.586967771524169 0 0 0
94 0 1 -1.6655567550442674 -0.08240402904130345 13.116192902814838 0 0 0
376 0 2 -0.07052434230512536 -0.5248251222419661 13.845830479284977 0 0 0
375 0 2 0.43773686504148196 -1.3870472478086744 13.7778410796239 0 0 0
96 0 1 -2.997478141978792 1.2040017624431767 13.782345382449419 0 0 0
95 0 1 -2.483069171592583 0.5054700433709518 13.309486935581086 0 0 0
91 0 1 -0.43185706409907526 0.8908346868492164 13.227637874786497 0 0 0
90 0 1 0.23155758474752933 1.4244988517343724 12.719280099602273 0 0 0
110 0 1 2.0772043690065516 0.16033089309554793 12.558054256871005 0 0 0
108 0 1 2.660643510897546 0.8176446551234973 13.250313660609583 0 0 0
109 0 1 3.037037166472849 0.25091890919742826 12.549350881176109 0 0 0
107 0 1 2.5962878873878332 0.24072332735686014 14.046292886749255 0 0 0
106 0 1 1.6252309719999893 0.5159894037661164 13.822990097124732 0 0 0
100 0 1 -0.6393312478605041 2.3152062085020475 13.95005829394856 0 0 0
101 0 1 0.3431517294967565 2.481118651985528 13.902578920812443 0 0 0
382 0 2 0.28724746483029007 -1.740377597311316 14.816551988721994 0 0 0
381 0 2 1.089930057264114 -2.2190505620389374 14.839937811595103 0 0 0
380 0 2 1.8063558948688867 -1.9511729385852121 14.182497198358222 0 0 0
386 0 2 -2.198437216196523 -1.1167886150193431 14.35888636988406 0 0 0
383 0 2 -0.12117338623476348 -1.1034324476817317 15.586027813095292 0 0 0
385 0 2 -1.5541518859292713 -0.6748138132665319 14.940551429397637 0 0 0
384 0 2 -0.6664719586486443 -1.1228150077815537 14.702948215429481 0 0 0
378 0 2 1.3526863254113421 -0.766331811539735 15.124908451672328 0 0 0
377 0 2 0.8400267282625249 -0.3584520917435802 14.349593065641292 0 0 0
379 0 2 2.107925967339665 -1.0699419222008977 14.471185569512798 0 0 0
93 0 1 -1.6137957547456212 0.14492999033801057 14.085992610938156 0 0 0
97 0 1 -2.4242829183093924 0.9263369740111393 14.613443205236663 0 0 0
92 0 1 -0.6466241749353805 0.5339848610591967 14.147324821918831 0 0 0
104 0 1 0.6726391649081477 1.2098746112192753 15.432186762364369 0 0 0
105 0 1 1.0497360238538114 0.978495911001156 14.497213196413966 0 0 0
98 0 1 -1.7763091435269234 1.7139227429820247 14.40379429890434 0 0 0
99 0 1 -0.9652223681437622 2.122812607789246 14.810043113907545 0 0 0
103 0 1 0.4088759633856712 2.0072556229707237 14.866727268947711 0 0 0
102 0 1 0.9469427008998249 2.8299530233558614 14.617938541912316 0 0 0

Velocities

316 0.267827 0.443169 -0.294556
317 0.247699 1.426796 -0.111701
315 -0.039142 0.756903 1.365721
314 -0.394153 0.320332 -0.33612
318 1.785579 0.319351 1.312486
319 -0.153323 -1.202534 -1.024364
313 -0.587417 -0.0948 1.185212
295 0.98829 -1.464285 -0.076646
294 1.522913 0.584804 1.566148
296 -0.519947 0.78071 1.519918
309 -1.574182 2.089924 -1.330255
312 1.789613 0.195202 -1.993003
310 0.169482 -1.739245 2.600383
311 0.561729 0.785475 1.074014
308 1.348198 -0.351542 -0.09647
297 -0.050706 -1.621623 -0.708288
307 -1.293492 0.113705 1.593024
306 0.777344 -0.197934 0.296028
321 0.520624 0.419511 0.997813
320 0.698895 0.19359 1.587132
180 0.021969 0.088751 -1.320044
322 -0.113939 1.918692 0.855055
181 -1.579141 -0.752784 -0.49586
292 -0.534752 0.842532 2.084686
293 -0.17475 -0.963277 -0.352797
179 -0.348684 2.077321 -0.441424
178 0.469982 -0.391901 0.379525
177 0.452644 -1.956734 1.643824
299 0.18891 0.26952 1.771885
298 -0.301931 -0.952477 -0.580851
176 -1.429853 0.847385 -1.888256
305 0.814301 1.139034 0.164952
301 -1.136884 -0.041831 -0.534638
303 -1.300768 1.311299 0.327311
304 0.46257 -0.370174 -0.60435
168 -0.868498 -0.578218 -0.480907
324 -0.045806 -0.848853 -1.480831
325 0.029142 -0.825772 -1.268967
326 -1.287213 -0.647033 1.220563
327 -0.115421 0.607641 -0.748665
172 0.439955 0.103697 -0.224093
323 -0.37703 0.423617 -1.213566
170 0.492039 0.609526 -0.490349
173 -0.913041 0.083606 1.301411
182 -1.028886 0.940984 -0.041402
174 -0.659739 0.598302 0.339099
300 -1.284254 -0.823608 1.425185
183 -1.28804 -0.083891 -1.176239
291 0.669182 0.149584 -1.045432
290 -0.457435 1.425065 0.116331
175 -0.099834 -0.742067 0.006845
302 -0.68139 -2.156821 2.557322
283 1.245744 0.324445 -2.028251
166 0.968715 -1.003719 1.050387
167 -0.650104 -0.376295 -0.250846
169 0.432311 -0.73568 0.971931
328 1.352529 -1.173079 -0.336387
165 1.715672 -0.352289 0.48442
171 0.488018 -0.292816 -0.231429
164 0.532044 -0.338354 1.242808
186 -0.629871 0.674655 -2.310981
185 0.694575 0.321538 0.544615
289 0.709254 -1.049028 1.005226
288 1.467679 0.939028 -0.623728
275 0.197349 1.420068 0.096214
274 -0.300885 -0.471189 -0.009725
184 -0.367216 -0.876053 -1.312921
187 -2.466561 0.771341 0.443177
286 0.385469 0.080615 -1.012216
276 0.455611 0.279851 0.05261
277 -0.560462 -0.002881 -0.094886
281 -0.154721 0.672324 1.087982
282 1.465489 -1.328567 -0.95877
284 0.031386 -0.081988 0.493474
285 0.774993 1.077071 0.655908
279 -0.529841 0.694644 0.936987
280 -1.259627 0.062665 0.140193
12 -1.809048 -1.412864 0.216409
11 0.21378 2.230029 0.021447
13 0.458701 0.856294 -0.408636
329 -0.441549 -1.431456 0.832969
330 0.301047 2.403973 1.507408
163 0.334518 0.201256 -0.108373
162 0.231725 0.289265 1.290718
29 0.548527 0.2638 -0.016464
28 0.334332 -0.988473 0.618266
27 1.652037 1.271717 1.169699
273 -0.518503 -0.81003 0.564191
272 1.476985 0.181912 -1.127566
188 0.785738 -0.94558 -1.210719
160 -0.184135 1.185869 -0.691409
159 0.583078 1.351519 0.422233
287 -0.387399 -1.893497 -0.749735
189 0.130331 -1.960468 0.49773
190 -0.266303 -0.782477 0.274305
278 1.847932 -0.017694 1.215982
10 -0.102997 0.085523 0.498514
332 1.504477 -0.562294 0.228757
30 -3.087937 0.202346 1.236982
331 -0.237103 2.171078 -0.243221
31 0.764302 1.710288 0.532313
16 -0.298257 -1.047819 -1.446
15 0.210168 -0.329894 -0.559652
14 -1.170299 -0.982563 -0.619457
161 0.2136 1.287904 -0.041893
24 -0.327953 0.198496 0.257342
25 -0.495822 0.940516 1.392759
26 -1.601951 1.318959 1.520199
271 -0.665423 -0.20581 0.699918
158 -0.187275 1.313833 -0.028491
157 -0.642028 0.116349 0.696816
270 0.844413 -0.097191 -0.443836
191 0.474952 -0.073393 0.113203
192 1.90615 1.044781 1.793568
9 -0.400261 -1.445606 1.463871
8 1.109789 -0.248279 -0.13362
18 0.448994 -0.139957 -1.043036
333 0.184149 -0.674181 1.574077
334 -0.273569 -1.447532 0.66823
32 0.123735 -2.375741 1.221388
17 -0.334422 1.910547 -0.019947
19 0.87124 -0.695483 -1.086679
22 1.076036 0.468354 0.043106
23 -0.610558 -0.192415 0.367009
33 0.957888 1.458185 -0.418562
34 -0.881538 -0.197591 -0.3409
35 -1.131325 -2.171458 0.698235
37 1.17801 -0.122695 1.337913
268 -0.778873 -0.067331 0.250863
269 0.829285 0.528732 1.342859
21 -0.270652 -0.034143 -1.845314
156 -0.191566 -0.376495 0.821474
155 -0.108812 -0.892995 -0.013787
36 1.152607 -1.430403 -1.390251
267 -0.752628 -1.605903 -0.08139
195 -1.105228 -2.064015 1.103708
196 -1.05878 0.593281 0.800565
194 -0.256426 -0.501306 -1.079964
193 -0.883192 -0.420373 -0.316816
7 -0.11635 0.714156 -1.14079
6 1.031628 1.216594 0.194641
5 2.538926 -0.57326 -0.897046
335 0.522626 1.388733 -0.430171
336 -0.358449 0.90582 -2.077497
264 -0.406529 -0.164558 -0.727726
20 0.832591 -0.529283 1.113224
3 0.752568 1.760915 -0.764247
38 0.176365 1.607463 0.133947
39 1.235197 1.312216 -0.394935
266 0.697279 1.278358 0.773066
265 -1.328244 -0.500066 1.168582
152 -0.433547 -0.158649 -0.384814
153 -0.67194 -0.449369 1.404557
154 0.480987 -1.383929 -0.669809
199 -0.040679 -0.017204 -1.045947
197 -0.13089 0.08572 1.146156
198 -1.063992 0.647746 -0.948855
4 0.299684 -0.490522 0.405212
52 1.383715 -0.170001 -1.00612
337 0.073464 1.487416 -1.143546
338 -0.549446 0.130603 -0.800264
263 -0.81784 0.17544 -1.039006
50 -2.445288 1.140729 0.564067
2 1.226145 0.745955 -1.082922
339 -0.171551 0.809793 -0.542496
1 0.247178 0.674368 2.509546
41 1.060648 0.468595 2.15425
40 0.351424 -0.365853 -0.91762
262 1.045695 1.424351 -1.563659
149 0.20408 1.100515 -0.207969
150 0.692393 -0.561422 -1.114618
151 1.397867 -1.180997 -0.38023
200 -1.297282 -1.968348 -0.759574
43 -1.022593 0.858877 -0.267067
42 -0.550351 1.857461 -0.032629
148 0.05191 -1.935908 0.970555
44 -2.848923 0.988391 -1.27151
45 0.180455 0.559987 -0.426672
57 -0.079753 -0.646988 -0.298961
53 0.664468 0.224619 0.154649
56 -0.070826 -1.82656 1.044355
55 -0.646746 -0.576167 1.187812
54 0.428139 0.413026 0.866198
340 -1.216394 -0.521161 0.438677
342 1.270871 0.719257 1.167302
58 0.920476 -0.682438 0.288632
59 -0.479408 1.491591 0.292743
341 0.617501 -0.507763 -0.104937
51 1.170813 -0.328462 -0.388407
261 -0.141283 1.527652 -0.110057
259 -0.272893 -0.599527 -1.312619
260 1.855918 0.009732 -0.549912
60 -0.793831 1.881632 0.867402
141 -0.516566 1.574357 0.634608
48 1.195626 -0.864658 0.397679
49 0.357029 0.198048 1.892308
142 0.815327 1.080571 -2.122735
147 0.077327 0.987414 -0.661067
146 -1.471174 0.198047 -0.404168
47 1.801309 0.083167 1.576004
46 -0.138961 0.651949 0.248604
143 -1.681125 0.002763 2.884681
209 0.142313 -0.730435 -1.060141
211 2.054966 -0.624393 1.858917
210 0.625691 -1.054544 -0.111272
212 1.971566 0.27999 -0.669981
258 0.835629 0.688141 0.239531
257 -0.807824 0.897149 -0.110435
343 -0.230745 -0.712462 1.482169
344 -1.578827 -0.320239 0.54217
214 -0.473102 0.003675 -0.084754
62 0.495317 -0.397933 -0.675804
61 0.21106 0.339571 -0.630842
140 0.018405 -0.650991 -0.330228
139 0.825027 0.684976 -1.220124
137 -0.135157 -0.018539 -0.482948
63 -0.024679 -0.869714 -0.372907
64 1.550615 1.784549 0.447156
144 0.070209 0.023175 -0.119624
145 -1.551064 0.310018 1.09977
208 0.757836 1.922326 1.82266
205 -0.921073 -0.279679 -1.119208
213 0.320867 1.32099 -0.12735
217 -1.259493 -0.031343 -0.537171
215 0.044461 0.316679 -0.213337
207 0.280765 0.140111 0.307379
348 1.455454 -0.829174 0.592361
345 1.257848 0.067915 -0.917189
347 -0.787248 0.057456 1.349245
216 0.019488 -0.298451 -0.954228
254 0.471118 -0.318177 -0.898112
255 1.167301 0.14858 -0.89015
253 0.264556 1.404183 0.365519
65 -0.968846 1.550599 -0.103329
346 0.761195 1.283956 -0.231294
256 -0.984868 -0.323357 -0.613191
138 0.583304 -0.967358 0.691763
133 -0.098622 0.304519 0.2257
135 -0.377347 1.451929 1.329371
66 1.339718 -0.425165 -1.128336
67 1.960672 0.703903 0.716303
136 -0.703496 0.437985 -1.238043
202 0.268081 0.761428 -1.976241
204 1.158335 0.40023 1.208383
203 1.002705 0.652281 0.635319
227 -0.431777 -0.085319 -0.623512
228 -0.117268 1.438522 0.34179
218 1.587324 0.919576 0.098624
251 1.58062 -0.059999 -0.252088
250 -1.462796 -0.544795 1.276374
201 1.041538 0.234398 -0.436445
206 -0.115012 0.691091 -0.481885
350 -0.590327 -1.247265 1.077691
349 -0.350677 -0.079211 1.606665
226 0.715874 0.322801 0.29979
219 -1.683449 1.148228 0.10136
220 0.281276 0.261715 0.902563
252 0.199865 -2.132138 1.767108
249 0.59337 -1.697864 2.040624
134 0.194724 -0.597585 0.493096
221 -0.993021 -2.24695 0.469248
132 -1.390979 -0.596387 -0.353517
130 0.686071 -0.871437 -1.703241
131 -0.499646 -1.162085 0.642456
68 1.775703 -0.970244 -0.2604
69 0.865013 -0.41285 -0.217641
229 -0.035059 0.146146 0.026825
230 -0.377577 1.522501 -0.454425
231 -0.467758 -0.169992 0.087755
399 -1.476831 -1.191294 0.122887
400 -0.674844 0.442994 0.759175
351 -0.920818 0.614692 -0.269783
352 -0.414701 -0.932652 0.398186
225 0.632673 -0.753106 0.860993
232 2.603928 0.494608 0.51061
247 -0.741296 -0.515812 -1.623634
248 -0.92573 1.623792 -0.929139
224 -1.113087 0.911369 -0.164077
128 1.011893 2.199821 0.130563
223 0.65268 0.067593 1.003141
222 -0.265789 -1.475159 1.527435
129 -0.908868 -0.037521 0.597886
70 0.723375 -0.609185 -1.411518
71 0.760405 0.344066 0.273332
398 0.54272 -1.004876 0.112489
397 -0.048099 0.933233 0.408104
237 -0.146065 0.51036 1.293735
236 -0.498521 1.060844 0.957226
355 0.40116 0.457975 -1.101584
354 -0.038311 -0.694917 -1.860162
353 0.160261 1.678145 0.155992
239 0.785111 0.604822 -0.213781
235 1.862731 0.252924 -1.450122
233 0.800729 0.368244 0.460464
234 0.493468 0.518521 -1.939622
245 -1.107984 -0.360852 1.335796
246 -1.624569 -1.245436 -1.237003
73 -0.981132 0.147188 0.30341
75 -1.176606 -0.578912 0.898958
74 -0.824071 -0.194836 0.295868
76 0.139688 -0.068498 -0.701295
244 -0.68203 0.852043 -0.225721
127 0.661195 1.134528 0.131741
72 -0.44043 0.101658 0.520528
126 -1.235922 0.533361 1.524363
395 -0.251244 -0.272049 0.104388
396 0.561619 -1.858473 0.587556
238 0.608764 1.884486 -0.059423
357 0.871787 1.980748 -0.998234
356 -0.370016 1.621827 -0.833287
360 0.584654 1.189771 -0.792355
364 0.35468 -0.370276 -0.589129
81 -1.131254 -1.345409 0.054771
80 1.664736 0.14344 -0.294479
240 0.677787 -0.315924 2.227151
365 0.345874 -0.964998 0.907961
78 0.23748 -1.618805 1.538999
77 1.439267 1.322376 0.54121
358 -1.412784 0.220153 0.009548
359 -0.842228 -0.214052 -0.851606
241 0.870181 -1.20364 0.717043
243 -0.527687 -0.66872 1.237255
242 -0.348308 1.367199 1.146441
125 -1.670031 -1.108043 -0.112665
123 -1.889092 -1.082837 -1.642809
124 -0.611446 1.499382 0.844837
394 -0.199709 -0.635629 0.079638
367 -0.588572 0.92509 -0.889308
393 -0.787889 1.605843 1.33851
392 -0.340711 -0.368194 0.106244
368 -0.31418 -0.59542 -0.193398
369 -0.793087 1.169294 -1.414991
370 -1.293886 -0.403018 -0.719932
362 0.121471 -0.286312 -1.339298
361 -1.757144 -0.844228 0.152719
366 -0.578871 -0.588724 -1.251456
114 1.480473 -0.971143 -1.548733
363 1.117793 -0.915931 0.191575
83 0.784083 -0.112234 -0.537165
82 1.622845 0.425297 1.484643
79 0.931789 0.448292 1.710391
116 0.381835 0.806266 0.222169
119 0.40395 0.26253 1.345052
115 0.930138 0.327372 -0.383275
122 -0.353134 -0.227682 0.097537
86 1.211115 0.038282 -0.176401
85 1.756375 0.645523 -0.249994
84 -0.627502 0.024281 -2.128955
118 -0.967384 0.191649 0.954321
121 -1.418374 0.019166 0.133931
120 -0.04918 -0.966349 0.45606
391 0.932911 0.40541 -0.042156
390 -1.331942 -1.213336 -1.059999
371 0.609326 -0.357028 -0.05403
372 0.125539 1.431944 1.029539
113 -0.616163 0.028637 0.826546
112 -0.165735 -1.043984 -1.270995
111 1.480192 1.117434 -0.179383
89 0.672986 -1.224851 -0.357562
117 -0.259396 0.001025 0.608164
88 0.319786 0.419985 0.352527
87 0.604564 1.5745 -0.475998
389 -0.35028 0.134568 -1.409492
374 -1.416339 0.672675 -1.096969
373 0.51726 1.657521 0.58425
387 0.578895 -2.170557 0.06189
388 0.355614 1.748347 -0.073919
94 0.665874 -0.308671 -2.256715
376 -0.625933 1.262684 0.308076
375 -2.018777 1.00278 -2.316831
96 -0.007414 0.437806 -1.084095
95 0.926707 -1.295504 0.205507
91 0.048371 -0.345777 -0.865305
90 -1.131447 -1.219381 -0.706564
110 0.025764 0.907982 -1.629175
108 -0.349581 -0.82977 0.778352
109 -0.77061 -1.055878 -0.848643
107 -0.08316 0.003915 -1.743973
106 0.928389 -1.092473 -0.34661
100 0.782777 -0.072209 -1.38518
101 -1.91159 0.90749 -0.103017
382 -1.304388 -0.710418 -1.291442
381 0.388914 -1.221513 -0.140132
380 0.079835 1.452043 -0.956139
386 -1.781941 -1.489689 0.484821
383 0.855965 0.757091 0.237325
385 -0.294849 -0.241348 -0.34409
384 -2.17765 -1.75153 1.520525
378 1.66277 -0.573784 0.874613
377 -1.109374 0.19404 -1.032303
379 2.256105 -0.498862 0.699952
93 -0.580984 0.779737 -1.607034
97 -0.384132 0.228237 0.281232
92 1.326069 -1.221431 1.037106
104 -0.829376 0.636226 1.540515
105 -0.1531 -0.691462 1.478856
98 0.993798 -0.888254 0.93808
99 0.068698 -0.449556 0.367285
103 -0.826633 0.448824 1.00948
102 0.613313 0.585555 -0.407958

Bonds

1 1 316 317
2 1 317 318
3 1 315 316
4 1 314 315
5 1 318 319
6 1 319 320
7 1 313 314
8 1 295 296
9 1 294 295
10 1 296 297
11 1 309 310
12 1 312 313
13 1 310 311
14 1 311 312
15 1 308 309
16 1 297 298
17 1 307 308
18 1 306 307
19 1 321 322
20 1 320 321
21 1 180 181
22 1 322 323
23 1 181 182
24 1 292 293
25 1 293 294
26 1 179 180
27 1 178 179
28 1 177 178
29 1 299 300
30 1 298 299
31 1 176 177
32 1 305 306
33 1 301 302
34 1 303 304
35 1 304 305
36 1 168 169
37 1 324 325
38 1 325 326
39 1 326 327
40 1 327 328
41 1 172 173
42 1 323 324
43 1 170 171
44 1 173 174
45 1 182 183
46 1 174 175
47 1 300 301
48 1 183 184
49 1 291 292
50 1 290 291
51 1 175 176
52 1 302 303
53 1 283 284
54 1 166 167
55 1 167 168
56 1 169 170
57 1 328 329
58 1 165 166
59 1 171 172
60 1 164 165
61 1 186 187
62 1 185 186
63 1 289 290
64 1 288 289
65 1 275 276
66 1 274 275
67 1 184 185
68 1 187 188
69 1 286 287
70 1 276 277
71 1 277 278
72 1 281 282
73 1 282 283
74 1 284 285
75 1 285 286
76 1 279 280
77 1 280 281
78 1 12 13
79 1 11 12
80 1 13 14
81 1 329 330
82 1 330 331
83 1 163 164
84 1 162 163
85 1 29 30
86 1 28 29
87 1 27 28
88 1 273 274
89 1 272 273
90 1 188 189
91 1 160 161
92 1 159 160
93 1 287 288
94 1 189 190
95 1 190 191
96 1 278 279
97 1 10 11
98 1 332 333
99 1 30 31
100 1 331 332
101 1 31 32
102 1 16 17
103 1 15 16
104 1 14 15
105 1 161 162
106 1 24 25
107 1 25 26
108 1 26 27
109 1 271 272
110 1 158 159
111 1 157 158
112 1 270 271
113 1 191 192
114 1 192 193
115 1 9 10
116 1 8 9
117 1 18 19
118 1 333 334
119 1 334 335
120 1 32 33
121 1 17 18
122 1 19 20
123 1 22 23
124 1 23 24
125 1 33 34
126 1 34 35
127 1 35 36
128 1 37 38
129 1 268 269
130 1 269 270
131 1 21 22
132 1 156 157
133 1 155 156
134 1 36 37
135 1 267 268
136 1 195 196
137 1 196 197
138 1 194 195
139 1 193 194
140 1 7 8
141 1 6 7
142 1 5 6
143 1 335 336
144 1 336 337
145 1 264 265
146 1 20 21
147 1 3 4
148 1 38 39
149 1 39 40
150 1 266 267
151 1 265 266
152 1 152 153
153 1 153 154
154 1 154 155
155 1 199 200
156 1 197 198
157 1 198 199
158 1 4 5
159 1 52 53
160 1 337 338
161 1 338 339
162 1 263 264
163 1 50 51
164 1 2 3
165 1 339 340
166 1 1 2
167 1 1 50
168 1 41 42
169 1 40 41
170 1 262 263
171 1 149 150
172 1 150 151
173 1 151 152
174 1 151 200
175 1 200 1
176 1 43 44
177 1 42 43
178 1 148 149
179 1 44 45
180 1 45 46
181 1 57 58
182 1 53 54
183 1 56 57
184 1 55 56
185 1 54 55
186 1 340 341
187 1 342 343
188 1 58 59
189 1 59 60
190 1 341 342
191 1 51 52
192 1 261 262
193 1 259 260
194 1 260 261
195 1 60 61
196 1 141 142
197 1 48 49
198 1 49 50
199 1 142 143
200 1 147 148
201 1 146 147
202 1 47 48
203 1 46 47
204 1 143 144
205 1 209 210
206 1 211 212
207 1 210 211
208 1 212 213
209 1 258 259
210 1 257 258
211 1 343 344
212 1 344 345
213 1 214 215
214 1 62 63
215 1 61 62
216 1 140 141
217 1 139 140
218 1 137 138
219 1 63 64
220 1 64 65
221 1 144 145
222 1 145 146
223 1 208 209
224 1 205 206
225 1 213 214
226 1 217 218
227 1 215 216
228 1 207 208
229 1 348 349
230 1 345 346
231 1 347 348
232 1 216 217
233 1 254 255
234 1 255 256
235 1 253 254
236 1 65 66
237 1 346 347
238 1 256 257
239 1 138 139
240 1 133 134
241 1 135 136
242 1 66 67
243 1 67 68
244 1 136 137
245 1 202 203
246 1 204 205
247 1 203 204
248 1 227 228
249 1 228 229
250 1 218 219
251 1 251 252
252 1 250 251
253 1 201 202
254 1 201 250
255 1 206 207
256 1 350 351
257 1 349 350
258 1 226 227
259 1 219 220
260 1 220 221
261 1 252 253
262 1 249 250
263 1 134 135
264 1 221 222
265 1 132 133
266 1 130 131
267 1 131 132
268 1 68 69
269 1 69 70
270 1 229 230
271 1 230 231
272 1 231 232
273 1 399 400
274 1 400 201
275 1 351 352
276 1 351 400
277 1 352 353
278 1 225 226
279 1 232 233
280 1 247 248
281 1 248 249
282 1 224 225
283 1 128 129
284 1 223 224
285 1 222 223
286 1 129 130
287 1 70 71
288 1 71 72
289 1 398 399
290 1 397 398
291 1 237 238
292 1 236 237
293 1 355 356
294 1 354 355
295 1 353 354
296 1 239 240
297 1 235 236
298 1 233 234
299 1 234 235
300 1 245 246
301 1 246 247
302 1 73 74
303 1 75 76
304 1 74 75
305 1 76 77
306 1 244 245
307 1 127 128
308 1 72 73
309 1 126 127
310 1 395 396
311 1 396 397
312 1 238 239
313 1 357 358
314 1 356 357
315 1 360 361
316 1 364 365
317 1 81 82
318 1 80 81
319 1 240 241
320 1 365 366
321 1 78 79
322 1 77 78
323 1 358 359
324 1 359 360
325 1 241 242
326 1 243 244
327 1 242 243
328 1 125 126
329 1 123 124
330 1 124 125
331 1 394 395
332 1 367 368
333 1 393 394
334 1 392 393
335 1 368 369
336 1 369 370
337 1 370 371
338 1 362 363
339 1 361 362
340 1 366 367
341 1 114 115
342 1 363 364
343 1 83 84
344 1 82 83
345 1 79 80
346 1 116 117
347 1 119 120
348 1 115 116
349 1 122 123
350 1 86 87
351 1 85 86
352 1 84 85
353 1 118 119
354 1 121 122
355 1 120 121
356 1 391 392
357 1 390 391
358 1 371 372
359 1 372 373
360 1 113 114
361 1 112 113
362 1 111 112
363 1 89 90
364 1 117 118
365 1 88 89
366 1 87 88
367 1 389 390
368 1 374 375
369 1 373 374
370 1 387 388
371 1 388 389
372 1 94 95
373 1 376 377
374 1 375 376
375 1 96 97
376 1 95 96
377 1 91 92
378 1 90 91
379 1 110 111
380 1 108 109
381 1 109 110
382 1 107 108
383 1 106 107
384 1 100 101
385 1 101 102
386 1 382 383
387 1 381 382
388 1 380 381
389 1 386 387
390 1 383 384
391 1 385 386
392 1 384 385
393 1 378 379
394 1 377 378
395 1 379 380
396 1 93 94
397 1 97 98
398 1 92 93
399 1 104 105
400 1 105 106
401 1 98 99
402 1 99 100
403 1 103 104
404 1 102 103
