LAMMPS data file via write_data, version 29 Sep 2021, timestep = 1000

100 atoms
13 atom types
100 bonds
1 bond types

-50 50 xlo xhi
-50 50 ylo yhi
-50 50 zlo zhi

Masses

1 1
2 1
3 1
4 1
5 1
6 1
7 1
8 1
9 1
10 1
11 1
12 1
13 1

Atoms # angle

10 0 1 -0.5626152926265414 -1.8853381742708655 0.5865470295855324 0 0 0
9 0 1 -1.1105265862833154 -2.7246976637184694 0.7730658836163007 0 0 0
12 0 1 0.9001188301480734 -1.8574107013398753 0.3416025807095382 0 0 0
14 0 1 1.4999202000052092 -2.4637125124338883 1.0317155236964224 0 0 0
11 0 1 0.218850536949386 -1.3189874916671667 0.8221105499860556 0 0 0
13 0 1 1.6154195289709548 -1.4608325851718469 0.9481240168701311 0 0 0
8 0 1 -0.5691655198336263 -2.580913843744387 1.5774601880511445 0 0 0
6 0 1 -0.07808148378057962 -1.7539279001823354 2.5324486353918076 0 0 0
7 0 1 -0.973867581145564 -2.037912313500277 2.3494450008067918 0 0 0
16 0 1 1.1120798660475875 -1.7805233382256869 2.0886754408459374 0 0 0
15 0 1 1.8004961715691337 -2.3768594375929912 1.90650737449237 0 0 0
18 0 1 2.0599801342219486 -1.739685131746565 2.9346627355359405 0 0 0
17 0 1 1.4351872746290641 -1.0465713093442897 2.547714850510678 0 0 0
19 0 1 2.615955963291876 -1.00730495333831 2.573520243037789 0 0 0
3 0 1 -1.8549044991564607 -1.8712273226064409 4.196184953612358 0 0 0
5 0 1 -0.27811253675024333 -2.2324311613390644 3.3917253743401057 0 0 0
4 0 1 -1.251577789756609 -2.276522439335775 3.585500083593218 0 0 0
28 0 1 0.24174645272173376 -2.0644241058198447 4.524663485893765 0 0 0
2 0 1 -1.686690592201435 -1.0001131295149734 4.5227082418375195 0 0 0
27 0 1 -0.1484891575478642 -1.2544869069536944 4.496642829276306 0 0 0
50 0 1 -0.6360604935932523 -0.4103078217868376 4.5597442286287935 0 0 0
1 0 1 -1.0368355404622784 -0.8914445494529283 3.808493344636568 0 0 0
29 0 1 0.8881182353688858 -1.4248161551149754 4.2073269825542585 0 0 0
26 0 1 0.06011759130887108 -0.659769871803525 3.701468598134463 0 0 0
25 0 1 0.9104054254306435 -0.25833678716568637 4.035262106301038 0 0 0
23 0 1 2.4220047107066014 -0.5048681541449594 3.9815212856640563 0 0 0
24 0 1 1.6118693071635937 -0.5551475014605276 4.55914295291762 0 0 0
20 0 1 3.270756913239941 -0.921541176147922 3.3101474818667107 0 0 0
22 0 1 3.2041861365912316 -0.10525031114846431 4.334865527759514 0 0 0
48 0 1 -0.8553067117086987 0.8526223119391867 4.6346407619320145 0 0 0
21 0 1 3.2260531597075466 0.044061204762112956 3.381959436823852 0 0 0
31 0 1 1.5287340229978432 -1.6003394752899422 5.837866801929378 0 0 0
151 0 1 -0.4389159854776433 -0.9722809227550846 5.778113255295975 0 0 0
30 0 1 1.058743262416381 -1.2128455678994203 5.090540314413543 0 0 0
152 0 1 0.2352481398758602 -0.4107951063893623 6.206504913993725 0 0 0
32 0 1 1.367167120942467 -0.6988303199658217 6.167602334447981 0 0 0
49 0 1 -0.023527907535393668 0.3160910526384343 4.7410906941272195 0 0 0
46 0 1 -0.8079569821079495 1.3840717117016743 5.8115525700548165 0 0 0
47 0 1 -1.3235135872613784 0.7051978980259769 5.425019122609609 0 0 0
153 0 1 -0.5831093934975867 0.10034048605698555 6.10679415974846 0 0 0
199 0 1 -1.5641593030085945 -2.166554665435328 6.543799028512875 0 0 0
198 0 1 -1.303867075918684 -2.041212965334576 7.4734976218034275 0 0 0
157 0 1 -2.8472458306096575 -0.7327800564547371 7.142320165247005 0 0 0
156 0 1 -1.9129217184271787 -0.9417606056094839 6.812635521413044 0 0 0
200 0 1 -0.9677499448538052 -1.5616881579002966 6.257031169713523 0 0 0
155 0 1 -1.1486160409275652 -0.9465998695571791 7.484409352492811 0 0 0
154 0 1 -1.1589112528700114 -0.24336098629491854 6.767795341301612 0 0 0
33 0 1 1.4930719285361878 -0.28843609229906597 7.04545672958887 0 0 0
39 0 1 -0.5106967650269137 0.10408019265898376 7.781560019539498 0 0 0
45 0 1 -1.6858264045582947 1.6424995887263163 6.337334723160395 0 0 0
44 0 1 -1.7128366129727053 1.6027587677708937 7.307776925434963 0 0 0
196 0 1 -1.9362138581743034 -3.5387063354638126 8.509665859707251 0 0 0
197 0 1 -1.547718186032527 -2.7902186486535645 8.039182079559716 0 0 0
195 0 1 -1.4739276018711973 -3.0889436491989164 9.18228891379344 0 0 0
158 0 1 -3.4688739204502053 -0.6871960066571439 7.882441113387649 0 0 0
159 0 1 -3.5969761763047816 -0.8863511545005559 8.87603230914328 0 0 0
160 0 1 -2.6449191147155684 -0.9503630246035292 9.073885488497387 0 0 0
40 0 1 -1.4197967791487651 -0.08768715329008561 8.079381653531888 0 0 0
37 0 1 0.08926406247029403 -1.1590400617670862 8.496172880602087 0 0 0
36 0 1 0.9598638251563031 -1.1895185980226117 8.923910033950786 0 0 0
38 0 1 0.0007621454513057624 -0.14713439990060492 8.592404870544772 0 0 0
34 0 1 2.0020400092590918 -0.2535283824537161 7.889054100378342 0 0 0
35 0 1 1.6317434520846315 -1.0595228135921664 8.253588956441082 0 0 0
41 0 1 -1.6911425161859575 0.6791174626243689 8.532823327753107 0 0 0
42 0 1 -1.840797068862055 1.6075306354182248 8.531867474098235 0 0 0
43 0 1 -1.0393230875917228 1.9207578459174446 8.050854334554069 0 0 0
194 0 1 -1.6459538654151378 -2.2404030322030692 9.466250763027611 0 0 0
193 0 1 -1.6909873715165262 -2.9145960781963316 10.224017754351632 0 0 0
192 0 1 -1.8224556270032162 -2.0069170430358447 10.589630696571655 0 0 0
167 0 1 0.033990394476060844 -1.6925680408437949 9.80969153835192 0 0 0
161 0 1 -3.035179023245458 -0.19498568637408473 9.557240110763287 0 0 0
165 0 1 -0.808863958304216 -0.3087302189527449 9.99169506119409 0 0 0
166 0 1 -0.28261193586744715 -0.8742211241958768 9.4040746398787 0 0 0
168 0 1 0.8918028507928738 -1.3702987241893712 10.181683549230282 0 0 0
162 0 1 -2.417372532298136 0.11087066522346445 10.192240410739558 0 0 0
163 0 1 -1.7983996625445693 0.5367406134470999 9.613697205421026 0 0 0
164 0 1 -1.1208573321972002 0.6080407616797849 10.22144555215795 0 0 0
171 0 1 0.6293575919965382 -2.604125314173587 11.252814684463832 0 0 0
170 0 1 1.4732763425445006 -2.1070558545816134 11.110149046861178 0 0 0
172 0 1 0.24840659855986413 -1.876375004371157 11.745897533973537 0 0 0
191 0 1 -1.5714828524726827 -1.4523175083811746 11.347960637644636 0 0 0
190 0 1 -1.7062368056894024 -1.365775221784452 12.306774468706047 0 0 0
173 0 1 -0.5838662681849619 -1.3749633846620752 11.837486984487347 0 0 0
174 0 1 -0.6873196031537679 -0.6579982053755961 12.456847252372949 0 0 0
169 0 1 1.4528639018132459 -1.1568232247387327 10.950896816082885 0 0 0
175 0 1 0.2391604939032304 -0.6601169684182862 12.295046793880038 0 0 0
176 0 1 1.2001379419977096 -0.9038128445172733 11.999182198195625 0 0 0
177 0 1 2.0137504440734326 -1.1839604578149692 12.430484503786921 0 0 0
189 0 1 -1.8666961815238194 -2.147515870881942 12.84952408719227 0 0 0
188 0 1 -2.343313820547561 -1.5793439429216447 13.426608315944081 0 0 0
187 0 1 -3.011879148367692 -1.1034046158361257 13.824450642244516 0 0 0
178 0 1 2.1302553368600257 -1.1639563935442938 13.448558701056493 0 0 0
185 0 1 -2.1758135255720146 -1.7419912888675857 15.088719002521865 0 0 0
179 0 1 2.4888975050940645 -1.6813068841339478 14.260270360760122 0 0 0
186 0 1 -2.6920442226018233 -0.9697452688494551 14.716405447234216 0 0 0
183 0 1 -0.48862451649242733 -1.0545786882379522 15.471162784788987 0 0 0
184 0 1 -1.3083521469451371 -1.20313970694328 15.08572940430991 0 0 0
182 0 1 0.37193481481503277 -1.200086403745829 15.090642243901483 0 0 0
181 0 1 1.2794749715029867 -1.1376769492786614 15.486247473528465 0 0 0
180 0 1 1.8542871228639437 -1.171024025767902 14.74527491887236 0 0 0

Velocities

10 0.625691 -1.054544 -0.111272
9 0.142313 -0.730435 -1.060141
12 1.971566 0.27999 -0.669981
14 -0.473102 0.003675 -0.084754
11 2.054966 -0.624393 1.858917
13 0.320867 1.32099 -0.12735
8 0.757836 1.922326 1.82266
6 -0.115012 0.691091 -0.481885
7 0.280765 0.140111 0.307379
16 0.019488 -0.298451 -0.954228
15 0.044461 0.316679 -0.213337
18 1.587324 0.919576 0.098624
17 -1.259493 -0.031343 -0.537171
19 -1.683449 1.148228 0.10136
3 1.002705 0.652281 0.635319
5 -0.921073 -0.279679 -1.119208
4 1.158335 0.40023 1.208383
28 -0.117268 1.438522 0.34179
2 0.268081 0.761428 -1.976241
27 -0.431777 -0.085319 -0.623512
50 -1.462796 -0.544795 1.276374
1 1.041538 0.234398 -0.436445
29 -0.035059 0.146146 0.026825
26 0.715874 0.322801 0.29979
25 0.632673 -0.753106 0.860993
23 0.65268 0.067593 1.003141
24 -1.113087 0.911369 -0.164077
20 0.281276 0.261715 0.902563
22 -0.265789 -1.475159 1.527435
48 -0.92573 1.623792 -0.929139
21 -0.993021 -2.24695 0.469248
31 -0.467758 -0.169992 0.087755
151 -0.920818 0.614692 -0.269783
30 -0.377577 1.522501 -0.454425
152 -0.414701 -0.932652 0.398186
32 2.603928 0.494608 0.51061
49 0.59337 -1.697864 2.040624
46 -1.624569 -1.245436 -1.237003
47 -0.741296 -0.515812 -1.623634
153 0.160261 1.678145 0.155992
199 -1.476831 -1.191294 0.122887
198 0.54272 -1.004876 0.112489
157 0.871787 1.980748 -0.998234
156 -0.370016 1.621827 -0.833287
200 -0.674844 0.442994 0.759175
155 0.40116 0.457975 -1.101584
154 -0.038311 -0.694917 -1.860162
33 0.800729 0.368244 0.460464
39 0.785111 0.604822 -0.213781
45 -1.107984 -0.360852 1.335796
44 -0.68203 0.852043 -0.225721
196 0.561619 -1.858473 0.587556
197 -0.048099 0.933233 0.408104
195 -0.251244 -0.272049 0.104388
158 -1.412784 0.220153 0.009548
159 -0.842228 -0.214052 -0.851606
160 0.584654 1.189771 -0.792355
40 0.677787 -0.315924 2.227151
37 -0.146065 0.51036 1.293735
36 -0.498521 1.060844 0.957226
38 0.608764 1.884486 -0.059423
34 0.493468 0.518521 -1.939622
35 1.862731 0.252924 -1.450122
41 0.870181 -1.20364 0.717043
42 -0.348308 1.367199 1.146441
43 -0.527687 -0.66872 1.237255
194 -0.199709 -0.635629 0.079638
193 -0.787889 1.605843 1.33851
192 -0.340711 -0.368194 0.106244
167 -0.588572 0.92509 -0.889308
161 -1.757144 -0.844228 0.152719
165 0.345874 -0.964998 0.907961
166 -0.578871 -0.588724 -1.251456
168 -0.31418 -0.59542 -0.193398
162 0.121471 -0.286312 -1.339298
163 1.117793 -0.915931 0.191575
164 0.35468 -0.370276 -0.589129
171 0.609326 -0.357028 -0.05403
170 -1.293886 -0.403018 -0.719932
172 0.125539 1.431944 1.029539
191 0.932911 0.40541 -0.042156
190 -1.331942 -1.213336 -1.059999
173 0.51726 1.657521 0.58425
174 -1.416339 0.672675 -1.096969
169 -0.793087 1.169294 -1.414991
175 -2.018777 1.00278 -2.316831
176 -0.625933 1.262684 0.308076
177 -1.109374 0.19404 -1.032303
189 -0.35028 0.134568 -1.409492
188 0.355614 1.748347 -0.073919
187 0.578895 -2.170557 0.06189
178 1.66277 -0.573784 0.874613
185 -0.294849 -0.241348 -0.34409
179 2.256105 -0.498862 0.699952
186 -1.781941 -1.489689 0.484821
183 0.855965 0.757091 0.237325
184 -2.17765 -1.75153 1.520525
182 -1.304388 -0.710418 -1.291442
181 0.388914 -1.221513 -0.140132
180 0.079835 1.452043 -0.956139

Bonds

1 1 10 11
2 1 9 10
3 1 12 13
4 1 14 15
5 1 11 12
6 1 13 14
7 1 8 9
8 1 6 7
9 1 7 8
10 1 16 17
11 1 15 16
12 1 18 19
13 1 17 18
14 1 19 20
15 1 3 4
16 1 5 6
17 1 4 5
18 1 28 29
19 1 2 3
20 1 27 28
21 1 1 2
22 1 1 50
23 1 29 30
24 1 26 27
25 1 25 26
26 1 23 24
27 1 24 25
28 1 20 21
29 1 22 23
30 1 48 49
31 1 21 22
32 1 31 32
33 1 151 152
34 1 151 200
35 1 30 31
36 1 152 153
37 1 32 33
38 1 49 50
39 1 46 47
40 1 47 48
41 1 153 154
42 1 199 200
43 1 198 199
44 1 157 158
45 1 156 157
46 1 155 156
47 1 154 155
48 1 33 34
49 1 39 40
50 1 45 46
51 1 44 45
52 1 196 197
53 1 197 198
54 1 195 196
55 1 158 159
56 1 159 160
57 1 160 161
58 1 40 41
59 1 37 38
60 1 36 37
61 1 38 39
62 1 34 35
63 1 35 36
64 1 41 42
65 1 42 43
66 1 43 44
67 1 194 195
68 1 193 194
69 1 192 193
70 1 167 168
71 1 161 162
72 1 165 166
73 1 166 167
74 1 168 169
75 1 162 163
76 1 163 164
77 1 164 165
78 1 171 172
79 1 170 171
80 1 172 173
81 1 191 192
82 1 190 191
83 1 173 174
84 1 174 175
85 1 169 170
86 1 175 176
87 1 176 177
88 1 177 178
89 1 189 190
90 1 188 189
91 1 187 188
92 1 178 179
93 1 185 186
94 1 179 180
95 1 186 187
96 1 183 184
97 1 184 185
98 1 182 183
99 1 181 182
100 1 180 181
