LAMMPS data file via write_data, version 29 Sep 2021, timestep = 1000

100 atoms
13 atom types
100 bonds
1 bond types

-50 50 xlo xhi
-50 50 ylo yhi
-50 50 zlo zhi

Masses

1 1
2 1
3 1
4 1
5 1
6 1
7 1
8 1
9 1
10 1
11 1
12 1
13 1

Atoms # angle

180 0 1 -2.388248738574555 -0.4148192224992961 -13.08251554567078 0 0 0
181 0 1 -1.5269515282578547 -0.678485429768892 -12.970022125779114 0 0 0
179 0 1 -1.785263911441959 0.09079439498054681 -13.672500561951 0 0 0
178 0 1 -1.0243533320013989 0.6484420524489185 -13.688274490985945 0 0 0
177 0 1 -1.4941560511565422 1.2385052119937705 -13.102848020710294 0 0 0
176 0 1 -1.6081041777220306 2.2084070258428565 -12.824184659061709 0 0 0
168 0 1 -1.634935324246714 -2.753262614546391 -11.333960681232734 0 0 0
167 0 1 -0.8278928174175512 -3.1169563367910595 -10.941194447307804 0 0 0
169 0 1 -1.5204715052387519 -1.7959815477459442 -11.44986696613206 0 0 0
170 0 1 -2.126534746153376 -1.0303925997191055 -11.513736478975954 0 0 0
182 0 1 -0.8495873253526094 -0.18149220130465685 -12.46836132737827 0 0 0
171 0 1 -1.5541103758894952 -0.3782855747300086 -10.981247487255263 0 0 0
184 0 1 0.09381420860564109 -0.7025289649895171 -11.21137957881783 0 0 0
183 0 1 0.04143727089242607 -0.46391911099567873 -12.142534504380551 0 0 0
172 0 1 -1.0769656407667638 0.4512726329992603 -11.17332818142475 0 0 0
173 0 1 -0.7423763139442549 1.3636015388802494 -11.13108703967397 0 0 0
174 0 1 -0.486469206428363 1.0746715585329536 -12.083097736681458 0 0 0
175 0 1 -1.0731844991132444 1.8220714037275858 -12.095612550421224 0 0 0
166 0 1 -0.3848448648400624 -2.594238366934435 -10.234002067051529 0 0 0
165 0 1 -0.3688660450910505 -2.0955658452656003 -9.405147378975434 0 0 0
164 0 1 -0.9765253455372856 -1.401594445172739 -9.593184018207998 0 0 0
185 0 1 0.7344002287771252 -0.15202594285030385 -10.755482485063967 0 0 0
187 0 1 -0.45104625696802364 0.5360231384233066 -9.45660751946473 0 0 0
186 0 1 0.3986710336350383 0.418910304083109 -9.941635275194152 0 0 0
12 0 1 -1.544111991515619 -1.961458403035553 -8.668969818537464 0 0 0
30 0 1 2.5112748561553233 -2.6336175974349527 -8.239115089288637 0 0 0
29 0 1 2.5919171489038706 -1.6597423725614286 -8.417301639927183 0 0 0
13 0 1 -1.4479876387314206 -1.266456159012917 -7.976221530127923 0 0 0
163 0 1 -0.03596671927999284 -1.202302938829972 -9.231164915330115 0 0 0
162 0 1 0.134934708278857 -0.42287495725762786 -8.610598628945203 0 0 0
26 0 1 1.540565351168334 -0.9978309138621875 -7.8207862817988705 0 0 0
27 0 1 1.4373021525845326 -1.0013375117883245 -8.80577562638875 0 0 0
28 0 1 2.3571096424704616 -0.7507059988733615 -8.73876306461611 0 0 0
188 0 1 -0.15449391058928974 1.2841267258061657 -8.906481375770966 0 0 0
189 0 1 0.03942170054310183 1.359835027918727 -7.9494697699215005 0 0 0
161 0 1 0.9240144170807261 0.11876987580442674 -8.581425354995051 0 0 0
160 0 1 1.7052334592744758 0.1626830261205245 -7.98439699236989 0 0 0
31 0 1 2.3243305971696775 -3.453448369229596 -7.75475664182468 0 0 0
11 0 1 -1.5308884593920122 -2.2330090015509123 -7.715557066121939 0 0 0
10 0 1 -0.6853573138123559 -2.382368244230223 -7.30041977734234 0 0 0
9 0 1 -0.4437377730132217 -2.2158400331974213 -6.378417949111725 0 0 0
32 0 1 2.0890263036219134 -2.8762300265163354 -7.028530660051809 0 0 0
33 0 1 2.2402411185429534 -2.3010656485578935 -6.2629853125283805 0 0 0
14 0 1 -1.690205025407735 -0.9979290277675558 -7.049289689279042 0 0 0
15 0 1 -1.16014740009649 -0.21845742171919025 -7.130845834464275 0 0 0
25 0 1 0.977574942158239 -1.0562121464782137 -6.99096485933325 0 0 0
35 0 1 2.855805844592936 -0.5679569265123746 -6.527174893470537 0 0 0
159 0 1 1.3470541955490534 0.8426085929220005 -7.415645759922103 0 0 0
158 0 1 1.332091650004179 1.1927986202451846 -6.503082539159416 0 0 0
190 0 1 0.5690308105582919 2.088189053213565 -7.506352639633672 0 0 0
191 0 1 0.05302989620204135 2.417548467707346 -6.676128242597568 0 0 0
192 0 1 0.7029750125161779 3.0376223593756433 -6.798403973556144 0 0 0
193 0 1 1.1919139830876093 2.295898753413968 -6.56219337135922 0 0 0
7 0 1 -0.6090649654036083 -2.8790795384323378 -5.13624443233707 0 0 0
8 0 1 -0.9753705155836186 -2.9896014138730793 -6.044822964830257 0 0 0
17 0 1 -1.7900042875168605 -0.7980562958105577 -5.746132688017665 0 0 0
18 0 1 -1.6743004723727588 -0.7198271689429785 -4.764138424595792 0 0 0
16 0 1 -1.4295216589575246 -0.05631709911480908 -6.210405822590937 0 0 0
19 0 1 -0.8139333126811723 -0.31308323249228015 -4.855533497762844 0 0 0
20 0 1 -0.22557010122782328 -0.7710013360406188 -5.418951834667635 0 0 0
24 0 1 0.36376701402981476 -1.1614212008936826 -6.24187042012996 0 0 0
23 0 1 0.7068231925093416 -0.20993749549557905 -6.159519794180104 0 0 0
21 0 1 0.1903384824281471 -0.17400283013755752 -4.765776121940715 0 0 0
34 0 1 2.5641426240650738 -1.41207033838799 -6.246884286933327 0 0 0
37 0 1 2.714398412338847 -0.7753118211389969 -4.9931288831071505 0 0 0
36 0 1 3.1478343113499188 -0.3133151419469557 -5.663302702483611 0 0 0
22 0 1 0.34102701028779975 0.3960599070447105 -5.5088992995498085 0 0 0
156 0 1 1.3827002512371027 0.24095954199628644 -5.013978668404921 0 0 0
157 0 1 1.370684490952942 1.047606446077477 -5.526856775845254 0 0 0
195 0 1 0.1330086919490972 1.942505588462603 -5.339493709006444 0 0 0
194 0 1 1.0839243000600391 2.054943109084308 -5.626069619977335 0 0 0
6 0 1 -1.2070556071986975 -2.4102651885060604 -4.653302221309655 0 0 0
5 0 1 -1.3158692600421074 -1.8757865277133718 -3.9035572786301205 0 0 0
3 0 1 -1.5161928258409083 -1.0051379081567702 -3.326107390860882 0 0 0
38 0 1 3.0160948598535238 -0.44332444166251594 -4.139831021901686 0 0 0
39 0 1 2.708791361963443 -0.6659194803873144 -3.2818208695938953 0 0 0
152 0 1 -0.6614729021865945 0.6863069499080477 -3.23966189541561 0 0 0
153 0 1 -0.2306822598831418 1.3660741440290893 -3.86803230312716 0 0 0
155 0 1 0.769866921599027 0.6999313148814295 -4.377550787779921 0 0 0
198 0 1 -0.8892253858731778 2.996349629493996 -3.7129110944115298 0 0 0
196 0 1 0.054685707597304456 2.635215587888316 -4.682650361040675 0 0 0
197 0 1 0.05941390661159877 2.8547744211441337 -3.6923488305304337 0 0 0
154 0 1 0.6573632889488576 1.6438303634378204 -4.180421700497833 0 0 0
4 0 1 -1.8514703555884702 -1.8778223754670467 -3.0832204746712972 0 0 0
2 0 1 -1.343229568165496 -0.4461981575112321 -2.5936702912767005 0 0 0
40 0 1 2.1624190208684198 -0.20323826441566614 -2.6365470340926302 0 0 0
50 0 1 -0.8697257419210289 0.8154155332432366 -1.5921847809261587 0 0 0
1 0 1 -1.505744344832339 0.44670140286245547 -2.282722090711794 0 0 0
151 0 1 -0.7864679401517277 1.2376008699198602 -2.499692256909457 0 0 0
41 0 1 1.5591586246020348 0.32629868633927867 -2.1172436957452527 0 0 0
43 0 1 1.1081124891517817 1.3115411739472795 -2.071476468098226 0 0 0
42 0 1 2.0224231178022225 1.0846779019895674 -1.913007261354448 0 0 0
200 0 1 -0.07386883113269808 1.8016611527481736 -2.79645176145347 0 0 0
199 0 1 -0.6442722926361044 2.5330806649755084 -2.842122756582927 0 0 0
44 0 1 1.590324120540576 2.143630925478368 -2.3057574851467586 0 0 0
49 0 1 -0.6472594264165714 1.6617292166914575 -1.075409066700608 0 0 0
47 0 1 0.9917876131779659 1.7583546820613702 -0.6643485945726095 0 0 0
48 0 1 0.11741856114317235 2.2241111332800982 -0.8354279613923312 0 0 0
46 0 1 1.7704812391418148 2.3106262564766693 -0.5013513965733588 0 0 0
45 0 1 1.8655770703576315 2.4927215006414936 -1.4972317183897943 0 0 0

Velocities

180 0.021969 0.088751 -1.320044
181 -1.579141 -0.752784 -0.49586
179 -0.348684 2.077321 -0.441424
178 0.469982 -0.391901 0.379525
177 0.452644 -1.956734 1.643824
176 -1.429853 0.847385 -1.888256
168 -0.868498 -0.578218 -0.480907
167 -0.650104 -0.376295 -0.250846
169 0.432311 -0.73568 0.971931
170 0.492039 0.609526 -0.490349
182 -1.028886 0.940984 -0.041402
171 0.488018 -0.292816 -0.231429
184 -0.367216 -0.876053 -1.312921
183 -1.28804 -0.083891 -1.176239
172 0.439955 0.103697 -0.224093
173 -0.913041 0.083606 1.301411
174 -0.659739 0.598302 0.339099
175 -0.099834 -0.742067 0.006845
166 0.968715 -1.003719 1.050387
165 1.715672 -0.352289 0.48442
164 0.532044 -0.338354 1.242808
185 0.694575 0.321538 0.544615
187 -2.466561 0.771341 0.443177
186 -0.629871 0.674655 -2.310981
12 -1.809048 -1.412864 0.216409
30 -3.087937 0.202346 1.236982
29 0.548527 0.2638 -0.016464
13 0.458701 0.856294 -0.408636
163 0.334518 0.201256 -0.108373
162 0.231725 0.289265 1.290718
26 -1.601951 1.318959 1.520199
27 1.652037 1.271717 1.169699
28 0.334332 -0.988473 0.618266
188 0.785738 -0.94558 -1.210719
189 0.130331 -1.960468 0.49773
161 0.2136 1.287904 -0.041893
160 -0.184135 1.185869 -0.691409
31 0.764302 1.710288 0.532313
11 0.21378 2.230029 0.021447
10 -0.102997 0.085523 0.498514
9 -0.400261 -1.445606 1.463871
32 0.123735 -2.375741 1.221388
33 0.957888 1.458185 -0.418562
14 -1.170299 -0.982563 -0.619457
15 0.210168 -0.329894 -0.559652
25 -0.495822 0.940516 1.392759
35 -1.131325 -2.171458 0.698235
159 0.583078 1.351519 0.422233
158 -0.187275 1.313833 -0.028491
190 -0.266303 -0.782477 0.274305
191 0.474952 -0.073393 0.113203
192 1.90615 1.044781 1.793568
193 -0.883192 -0.420373 -0.316816
7 -0.11635 0.714156 -1.14079
8 1.109789 -0.248279 -0.13362
17 -0.334422 1.910547 -0.019947
18 0.448994 -0.139957 -1.043036
16 -0.298257 -1.047819 -1.446
19 0.87124 -0.695483 -1.086679
20 0.832591 -0.529283 1.113224
24 -0.327953 0.198496 0.257342
23 -0.610558 -0.192415 0.367009
21 -0.270652 -0.034143 -1.845314
34 -0.881538 -0.197591 -0.3409
37 1.17801 -0.122695 1.337913
36 1.152607 -1.430403 -1.390251
22 1.076036 0.468354 0.043106
156 -0.191566 -0.376495 0.821474
157 -0.642028 0.116349 0.696816
195 -1.105228 -2.064015 1.103708
194 -0.256426 -0.501306 -1.079964
6 1.031628 1.216594 0.194641
5 2.538926 -0.57326 -0.897046
3 0.752568 1.760915 -0.764247
38 0.176365 1.607463 0.133947
39 1.235197 1.312216 -0.394935
152 -0.433547 -0.158649 -0.384814
153 -0.67194 -0.449369 1.404557
155 -0.108812 -0.892995 -0.013787
198 -1.063992 0.647746 -0.948855
196 -1.05878 0.593281 0.800565
197 -0.13089 0.08572 1.146156
154 0.480987 -1.383929 -0.669809
4 0.299684 -0.490522 0.405212
2 1.226145 0.745955 -1.082922
40 0.351424 -0.365853 -0.91762
50 -2.445288 1.140729 0.564067
1 0.247178 0.674368 2.509546
151 1.397867 -1.180997 -0.38023
41 1.060648 0.468595 2.15425
43 -1.022593 0.858877 -0.267067
42 -0.550351 1.857461 -0.032629
200 -1.297282 -1.968348 -0.759574
199 -0.040679 -0.017204 -1.045947
44 -2.848923 0.988391 -1.27151
49 0.357029 0.198048 1.892308
47 1.801309 0.083167 1.576004
48 1.195626 -0.864658 0.397679
46 -0.138961 0.651949 0.248604
45 0.180455 0.559987 -0.426672

Bonds

1 1 180 181
2 1 181 182
3 1 179 180
4 1 178 179
5 1 177 178
6 1 176 177
7 1 168 169
8 1 167 168
9 1 169 170
10 1 170 171
11 1 182 183
12 1 171 172
13 1 184 185
14 1 183 184
15 1 172 173
16 1 173 174
17 1 174 175
18 1 175 176
19 1 166 167
20 1 165 166
21 1 164 165
22 1 185 186
23 1 187 188
24 1 186 187
25 1 12 13
26 1 30 31
27 1 29 30
28 1 13 14
29 1 163 164
30 1 162 163
31 1 26 27
32 1 27 28
33 1 28 29
34 1 188 189
35 1 189 190
36 1 161 162
37 1 160 161
38 1 31 32
39 1 11 12
40 1 10 11
41 1 9 10
42 1 32 33
43 1 33 34
44 1 14 15
45 1 15 16
46 1 25 26
47 1 35 36
48 1 159 160
49 1 158 159
50 1 190 191
51 1 191 192
52 1 192 193
53 1 193 194
54 1 7 8
55 1 8 9
56 1 17 18
57 1 18 19
58 1 16 17
59 1 19 20
60 1 20 21
61 1 24 25
62 1 23 24
63 1 21 22
64 1 34 35
65 1 37 38
66 1 36 37
67 1 22 23
68 1 156 157
69 1 157 158
70 1 195 196
71 1 194 195
72 1 6 7
73 1 5 6
74 1 3 4
75 1 38 39
76 1 39 40
77 1 152 153
78 1 153 154
79 1 155 156
80 1 198 199
81 1 196 197
82 1 197 198
83 1 154 155
84 1 4 5
85 1 2 3
86 1 40 41
87 1 1 2
88 1 1 50
89 1 151 152
90 1 151 200
91 1 41 42
92 1 43 44
93 1 42 43
94 1 199 200
95 1 44 45
96 1 49 50
97 1 47 48
98 1 48 49
99 1 46 47
100 1 45 46
