ITEM: TIMESTEP
0
ITEM: NUMBER OF ATOMS
100
ITEM: BOX BOUNDS ff ff ff
-5.0000000000000000e+01 5.0000000000000000e+01
-5.0000000000000000e+01 5.0000000000000000e+01
-5.0000000000000000e+01 5.0000000000000000e+01
ITEM: ATOMS id type x y z
11 1 -0.135592 -1.83471 1.54114
10 1 -0.766528 -1.64621 0.796965
9 1 -1.6973 -1.37504 0.852613
8 1 -1.44759 -1.94519 1.63852
6 1 -1.0991 -1.87936 2.62876
13 1 1.17936 -2.29653 1.99848
12 1 0.286131 -2.15087 2.33756
14 1 1.73331 -1.61412 1.6003
7 1 -1.65973 -1.21162 2.22755
17 1 0.93703 -1.37589 2.95571
16 1 1.4486 -0.836211 2.34614
15 1 2.34409 -1.12816 2.24838
5 1 -0.437822 -2.26938 3.19259
4 1 -0.935709 -2.06977 4.02333
3 1 -1.49724 -1.65441 4.62812
2 1 -1.77944 -0.856217 4.18496
18 1 1.49958 -1.30071 3.65693
27 1 0.174365 -1.44466 4.64066
19 1 2.26937 -0.928011 4.06699
20 1 1.97714 -0.20823 3.53109
50 1 -1.57963 0.200191 3.81344
49 1 -1.26944 1.10517 3.94054
21 1 2.59514 0.036165 4.27045
28 1 -0.051094 -2.23391 5.12482
29 1 0.959906 -2.08786 5.09665
30 1 1.6757 -1.65457 5.6112
1 1 -1.68259 -0.019418 4.75871
199 1 -1.66216 -1.24746 5.93423
200 1 -1.25013 -0.790503 5.16598
151 1 -0.411807 -0.951562 5.60105
26 1 0.72189 -0.850897 5.22783
152 1 0.332106 -1.32074 6.16268
23 1 2.02832 -0.380608 5.22193
31 1 1.80346 -0.964879 6.22208
46 1 -2.03504 1.06702 5.88982
24 1 1.34432 0.143647 5.59833
25 1 0.445438 0.034144 5.35985
22 1 2.15172 0.546813 4.96294
47 1 -1.77203 1.92346 5.60659
48 1 -1.50993 1.64944 4.6991
198 1 -1.40759 -2.09559 6.34187
196 1 -0.952521 -2.41284 7.76197
197 1 -0.673016 -2.47058 6.83956
37 1 0.282369 -2.04435 7.00801
155 1 -1.09498 -0.801625 7.47704
154 1 -0.393239 -0.989807 6.84964
153 1 0.362652 -0.487919 6.62961
36 1 0.911541 -1.35124 7.0555
32 1 2.48769 -0.403574 6.54057
34 1 2.10034 -0.308777 7.52554
35 1 1.58173 -1.11965 7.74639
158 1 -2.53477 0.264623 7.30449
45 1 -1.81032 1.51225 6.71653
44 1 -1.26427 1.11224 7.42607
33 1 1.64434 0.158076 6.77419
43 1 -1.10086 2.08668 7.67088
195 1 -0.980543 -1.97394 8.64862
38 1 0.003645 -1.695 7.84888
167 1 0.24886 -1.97911 9.3326
157 1 -2.37021 -0.625189 7.82521
156 1 -1.75238 -1.33391 8.02499
39 1 -0.165317 -0.898209 8.3071
159 1 -1.8391 0.205772 7.98989
160 1 -1.7361 0.006112 8.94962
41 1 -1.00182 0.638612 8.55751
40 1 -0.368869 0.055497 8.17545
42 1 -0.818417 1.54935 8.45631
194 1 -1.34743 -1.83383 9.50559
193 1 -1.33682 -1.58997 10.4313
192 1 -0.602888 -2.13381 10.8997
168 1 0.413525 -2.38614 10.1878
169 1 1.03441 -1.67794 10.3917
165 1 -0.216119 -0.644216 9.48217
166 1 -0.401931 -1.46973 9.85279
162 1 -2.30914 0.158234 10.6278
161 1 -2.34417 0.244089 9.68549
164 1 -0.675973 0.179012 9.73505
163 1 -1.38677 0.329251 10.3358
191 1 -0.358 -1.64602 11.6574
190 1 -1.34036 -1.74153 11.5962
171 1 1.21629 -2.14711 11.926
170 1 1.56316 -2.11646 11.0547
189 1 -1.57622 -1.0471 12.255
173 1 -0.041909 -2.09916 12.5154
172 1 0.884583 -1.8596 12.7506
187 1 -2.14153 -1.54527 13.6266
186 1 -2.39385 -0.65306 13.6457
188 1 -1.3332 -1.46359 13.1031
174 1 -0.196818 -1.19755 12.7426
175 1 0.238307 -1.20479 13.5922
179 1 1.89192 -0.899042 13.7862
183 1 -0.702893 -1.86498 14.8395
182 1 0.246648 -1.89558 14.6793
181 1 1.18421 -1.98883 14.641
180 1 1.95917 -1.60451 14.3801
185 1 -1.83556 -0.700987 14.4478
184 1 -1.08156 -1.27391 14.2158
176 1 0.204679 -0.382251 14.0891
178 1 1.52851 -0.165061 14.2834
177 1 0.736355 0.430811 14.0944
ITEM: TIMESTEP
100
ITEM: NUMBER OF ATOMS
100
ITEM: BOX BOUNDS ff ff ff
-5.0000000000000000e+01 5.0000000000000000e+01
-5.0000000000000000e+01 5.0000000000000000e+01
-5.0000000000000000e+01 5.0000000000000000e+01
ITEM: ATOMS id type x y z
11 1 -0.238358 -1.81947 1.25131
10 1 -0.588742 -1.00139 0.941135
9 1 -1.2308 -1.71702 0.623402
8 1 -1.85087 -1.80492 1.35273
6 1 -1.00183 -1.72562 2.31039
13 1 0.996175 -2.50754 1.61877
12 1 0.213244 -2.15639 1.97784
14 1 1.92073 -2.24634 1.66863
7 1 -1.73746 -1.14364 2.06224
17 1 1.19601 -1.65801 2.89181
16 1 1.16252 -1.35406 1.99727
15 1 2.12326 -1.41461 2.15816
5 1 -0.544881 -1.40488 3.06513
4 1 -0.992814 -2.02625 3.59124
3 1 -1.70415 -1.73959 4.21999
2 1 -2.1162 -0.929591 4.18271
18 1 1.38123 -1.30428 3.80415
27 1 0.0214022 -1.09024 4.32443
19 1 2.39016 -0.91274 3.7269
20 1 2.98121 -0.106934 3.61918
50 1 -1.9023 0.498373 3.55585
49 1 -1.33565 1.19622 3.81259
21 1 2.91219 -0.473096 4.5138
28 1 -0.00369577 -2.01194 4.69376
29 1 0.847733 -1.78482 5.22332
30 1 1.63971 -1.47577 5.64291
1 1 -2.01248 0.0157583 4.36733
199 1 -1.46605 -0.813946 6.03633
200 1 -0.896382 -0.676904 5.22091
151 1 -0.474721 -1.34384 5.72688
26 1 0.540888 -0.755766 5.08785
152 1 0.209307 -1.20993 6.31122
23 1 1.78885 -0.760553 4.87983
31 1 2.33146 -1.00451 6.17712
46 1 -2.11334 1.20043 6.01378
24 1 1.14495 -0.184359 4.40278
25 1 0.460524 0.190775 5.05737
22 1 2.17815 0.106634 4.6803
47 1 -1.7532 1.9359 5.51365
48 1 -1.46301 1.43812 4.76547
198 1 -1.40975 -1.67799 6.38905
196 1 -1.08468 -2.44194 7.61287
197 1 -0.714589 -2.19186 6.76968
37 1 0.593759 -1.91463 7.63635
155 1 -1.31725 -0.809783 7.77204
154 1 -0.749273 -1.25985 7.18667
153 1 -0.0825871 -0.622105 6.9584
36 1 1.33708 -1.51669 7.17867
32 1 2.74896 -0.137472 6.31743
34 1 2.03326 -0.318164 7.75078
35 1 1.15572 -0.8293 7.80188
158 1 -2.03043 -0.036075 7.27339
45 1 -2.25946 0.911945 6.90482
44 1 -1.50897 1.24093 7.39546
33 1 2.05783 0.187192 6.92945
43 1 -0.963883 2.04066 7.41929
195 1 -1.23275 -2.07078 8.52523
38 1 -0.176571 -1.77791 8.17403
167 1 0.176012 -2.1385 9.25644
157 1 -2.53474 -0.802044 7.0216
156 1 -2.20014 -1.05478 7.93304
39 1 0.190974 -0.909929 8.3366
159 1 -1.97487 0.187839 8.19247
160 1 -2.1553 0.424926 9.16239
41 1 -0.922667 0.644773 8.50529
40 1 -0.507259 -0.263445 8.31066
42 1 -0.704943 1.51062 8.16532
194 1 -1.22965 -2.38305 9.41008
193 1 -1.12314 -1.94112 10.2144
192 1 -0.662826 -2.3045 10.986
168 1 0.645212 -2.01532 10.1136
169 1 1.23749 -1.36574 10.5165
165 1 -0.582912 -0.742505 10.1398
166 1 -0.330908 -1.38868 9.49664
162 1 -2.39401 0.426111 10.4405
161 1 -2.99088 0.380001 9.55678
164 1 -0.714551 0.00182751 9.59539
163 1 -1.55949 0.273919 9.96573
191 1 -0.678229 -1.53107 11.5777
190 1 -1.56163 -1.20448 11.5861
171 1 1.52588 -1.48631 12.2584
170 1 1.68758 -1.10289 11.3192
189 1 -1.37062 -1.24615 12.5209
173 1 0.161238 -2.00268 12.7279
172 1 1.0983 -1.98722 13.0019
187 1 -2.51756 -1.6719 13.558
186 1 -2.31123 -0.767722 13.3191
188 1 -1.6076 -1.8881 13.1783
174 1 -0.157486 -1.1374 12.5504
175 1 0.455906 -1.02027 13.2614
179 1 1.85479 -0.881242 14.3548
183 1 -0.719953 -2.19325 14.4615
182 1 0.194716 -2.121 14.5072
181 1 1.10925 -2.10794 14.2987
180 1 1.53195 -1.53791 14.9687
185 1 -1.46628 -0.883188 13.7959
184 1 -0.618646 -1.31647 14.0837
176 1 -0.0227089 -0.490575 13.8948
178 1 1.23458 -0.245849 14.0809
177 1 0.433386 0.227211 14.1896
ITEM: TIMESTEP
200
ITEM: NUMBER OF ATOMS
100
ITEM: BOX BOUNDS ff ff ff
-5.0000000000000000e+01 5.0000000000000000e+01
-5.0000000000000000e+01 5.0000000000000000e+01
-5.0000000000000000e+01 5.0000000000000000e+01
ITEM: ATOMS id type x y z
11 1 -0.519864 -1.89168 1.43619
10 1 -0.557056 -1.04468 0.94374
9 1 -1.46631 -1.14743 0.520641
8 1 -1.675 -1.81552 1.2296
6 1 -1.22894 -1.50377 2.53908
13 1 1.12215 -2.81829 1.71067
12 1 0.421347 -2.1795 1.61485
14 1 1.98365 -2.60229 2.0258
7 1 -1.97834 -1.37898 2.02757
17 1 0.945368 -1.43391 3.12702
16 1 1.21938 -1.5863 2.18691
15 1 2.21707 -1.68953 2.30025
5 1 -0.666655 -2.06939 3.09671
4 1 -1.25974 -2.57482 3.66
3 1 -1.6287 -1.73577 3.82868
2 1 -1.83271 -0.910455 4.20906
18 1 1.77703 -1.50697 3.63578
27 1 -0.0469393 -1.10637 4.3058
19 1 2.67861 -1.10268 3.5993
20 1 2.91167 -0.145652 3.67838
50 1 -1.86693 0.444991 3.77181
49 1 -1.17422 1.04908 4.02891
21 1 3.20962 -0.0724486 4.60153
28 1 -0.0834944 -1.78817 4.98889
29 1 0.958393 -1.715 4.8823
30 1 1.43961 -1.38865 5.61413
1 1 -1.31701 -0.156872 4.37353
199 1 -1.80788 -1.02277 6.3328
200 1 -0.825768 -0.867747 6.12542
151 1 -0.265352 -1.68019 6.08957
26 1 0.342059 -0.664219 5.12386
152 1 0.520392 -1.19291 6.41431
23 1 1.64949 -0.900442 4.57173
31 1 1.84371 -0.593195 5.92244
46 1 -2.5567 1.07893 5.76109
24 1 1.36871 -0.152112 3.9831
25 1 0.601443 0.0107218 4.50221
22 1 2.30647 -0.229376 4.94601
47 1 -2.34499 1.75569 5.05617
48 1 -1.49135 1.72039 4.63642
198 1 -1.61852 -1.97941 6.34329
196 1 -1.33679 -2.59839 7.72619
197 1 -1.06848 -2.58012 6.81147
37 1 0.419065 -1.98647 7.10602
155 1 -1.40701 -0.90841 7.34944
154 1 -0.442754 -0.991827 7.303
153 1 0.293075 -0.471511 7.00169
36 1 1.22276 -1.55043 7.21608
32 1 2.50605 -0.234169 6.53661
34 1 1.57324 -0.0392846 7.48385
35 1 1.5702 -0.990671 7.84989
158 1 -2.88845 0.24543 7.52824
45 1 -2.34797 1.13621 6.70044
44 1 -1.54857 1.39745 7.11789
33 1 2.21207 0.547326 7.09706
43 1 -1.30942 2.22246 7.57238
195 1 -1.34139 -2.28757 8.66934
38 1 -0.133049 -1.90651 7.93857
167 1 0.242975 -1.6871 9.06521
157 1 -2.5794 -0.307619 6.82362
156 1 -2.29381 -0.780045 7.56936
39 1 -0.198889 -0.950451 8.27956
159 1 -2.3754 0.29748 8.33411
160 1 -2.74265 -0.119491 9.13403
41 1 -1.18545 0.682795 7.93607
40 1 -0.88718 -0.205343 8.04291
42 1 -0.823485 1.57954 8.09971
194 1 -0.850351 -2.33767 9.52159
193 1 -0.906944 -2.10519 10.5135
192 1 -1.30307 -2.43127 11.3635
168 1 0.339066 -2.21946 9.96042
169 1 1.14702 -1.89357 10.3297
165 1 -0.411957 -0.886806 10.4651
166 1 -0.412338 -1.17774 9.49919
162 1 -2.25679 0.747763 9.64909
161 1 -2.96037 0.0840095 10.0288
164 1 -0.656609 -0.175739 9.83291
163 1 -1.63682 0.0254327 9.66197
191 1 -0.83856 -1.81114 11.8783
190 1 -1.32465 -1.02167 11.6649
171 1 1.28328 -1.98746 12.161
170 1 1.46142 -1.81584 11.2024
189 1 -1.36774 -1.13328 12.6316
173 1 -0.0692986 -1.83583 12.6649
172 1 0.799185 -1.94589 12.9853
187 1 -2.48361 -1.42284 13.3313
186 1 -2.30599 -0.58505 13.688
188 1 -1.76652 -1.98504 13.0682
174 1 0.0868567 -0.877454 12.4582
175 1 0.0533782 -1.10258 13.3541
179 1 2.37379 -0.689214 13.9601
183 1 -0.1838 -2.06061 13.9233
182 1 0.46919 -1.82886 14.6103
181 1 1.43765 -1.96187 14.4929
180 1 2.27443 -1.44949 14.6086
185 1 -1.37687 -0.766737 13.9799
184 1 -1.03691 -1.66061 14.1351
176 1 -0.0391098 -0.140088 13.3216
178 1 1.80957 0.132289 13.8438
177 1 0.875814 0.11263 13.4311
ITEM: TIMESTEP
300
ITEM: NUMBER OF ATOMS
100
ITEM: BOX BOUNDS ff ff ff
-5.0000000000000000e+01 5.0000000000000000e+01
-5.0000000000000000e+01 5.0000000000000000e+01
-5.0000000000000000e+01 5.0000000000000000e+01
ITEM: ATOMS id type x y z
11 1 -0.255585 -1.94875 1.42241
10 1 -0.90101 -1.28762 1.01532
9 1 -1.01391 -2.22503 0.654349
8 1 -1.63777 -2.18426 1.41823
6 1 -0.958435 -1.05186 2.72979
13 1 0.848976 -2.86929 1.77302
12 1 0.522599 -2.43476 0.965966
14 1 1.80926 -2.56314 1.77448
7 1 -1.46432 -1.4137 1.96911
17 1 1.1395 -1.5252 3.19629
16 1 1.22267 -1.86304 2.21311
15 1 2.02342 -2.04798 2.63156
5 1 -0.774034 -1.98131 3.01515
4 1 -1.52373 -2.37996 3.46544
3 1 -1.63359 -1.84591 4.27589
2 1 -2.00122 -0.915987 4.03857
18 1 2.00166 -1.3228 3.54035
27 1 0.0768931 -1.0545 4.11457
19 1 2.93712 -1.48186 3.86293
20 1 3.09372 -0.555765 3.70417
50 1 -0.973651 0.31322 3.88988
49 1 -0.815076 1.16332 4.2847
21 1 3.54122 0.0166219 4.40894
28 1 -0.0129319 -1.84319 4.79607
29 1 0.707644 -1.86023 5.42775
30 1 1.36884 -1.19593 5.41801
1 1 -1.11252 -0.591784 4.20675
199 1 -1.81878 -1.11278 6.30082
200 1 -1.09665 -1.24297 5.75247
151 1 -0.147863 -1.44009 5.94281
26 1 0.282545 -0.925483 5.06881
152 1 0.377078 -0.678121 6.4605
23 1 1.85166 -0.805154 4.47822
31 1 2.00276 -0.405635 5.63344
46 1 -1.95387 1.37019 5.90509
24 1 1.11416 -0.226247 4.19142
25 1 0.348487 -0.0279986 4.72925
22 1 2.60774 -0.218743 4.46717
47 1 -1.59757 1.21996 5.06181
48 1 -1.19096 1.95767 4.6171
198 1 -1.45282 -2.01017 6.48676
196 1 -1.58862 -2.57948 8.05376
197 1 -1.39604 -2.75579 7.11995
37 1 0.218185 -1.99056 7.17717
155 1 -1.41273 -0.965718 7.36829
154 1 -0.418287 -0.978437 7.13975
153 1 0.375353 -0.622016 7.46869
36 1 1.16795 -1.80466 7.41821
32 1 2.32519 0.00352421 6.44016
34 1 1.63249 0.0557878 7.76587
35 1 1.43942 -0.863002 7.57618
158 1 -2.76976 0.0476425 7.91384
45 1 -2.58694 1.30041 6.61903
44 1 -1.83085 1.71457 7.07123
33 1 1.87293 0.647633 6.9529
43 1 -1.05452 1.83313 7.67433
195 1 -1.76493 -2.18487 8.9328
38 1 -0.0257208 -1.4465 7.93458
167 1 0.172259 -2.20921 9.61654
157 1 -2.35724 -0.0273764 7.06235
156 1 -2.34292 -0.875918 7.43719
39 1 -0.752029 -0.967826 8.25265
159 1 -2.87032 -0.41452 8.74586
160 1 -2.87121 -0.540674 9.71096
41 1 -1.569 0.599104 7.94025
40 1 -0.964067 -0.0296784 8.43205
42 1 -1.50269 1.4254 8.42245
194 1 -1.047 -2.69551 9.43894
193 1 -1.5432 -2.58006 10.1962
192 1 -1.259 -1.99025 10.8519
168 1 0.722965 -1.6304 10.1865
169 1 1.6156 -1.29919 10.2344
165 1 -0.230819 -0.702073 9.88626
166 1 -0.535645 -1.60367 9.52702
162 1 -2.05506 0.529417 9.69463
161 1 -2.37223 -0.00201554 10.4066
164 1 -0.576004 0.151649 9.63742
163 1 -1.44292 -0.265279 9.67046
191 1 -0.595861 -1.97468 11.5567
190 1 -0.923368 -1.08974 11.8354
171 1 1.08354 -1.58234 12.0338
170 1 1.49771 -1.4496 11.1574
189 1 -1.73616 -0.986811 12.4228
173 1 -0.367366 -1.85027 12.7009
172 1 0.643769 -2.02 12.8075
187 1 -2.25373 -1.53716 13.6877
186 1 -2.46827 -0.66422 14.0806
188 1 -2.26645 -1.78895 12.767
174 1 -0.546382 -0.924332 12.9808
175 1 0.304754 -1.03631 13.4175
179 1 2.49605 -0.650818 13.4812
183 1 -0.376852 -2.09694 14.1764
182 1 0.44606 -1.97935 14.7454
181 1 1.25558 -1.89442 14.2911
180 1 2.04629 -1.31347 14.1924
185 1 -1.75127 -1.09722 14.5127
184 1 -0.964249 -1.6686 14.8134
176 1 0.355722 8.59695e-05 13.4265
178 1 1.88218 0.0436449 13.6035
177 1 1.15588 -0.477672 13.2254
ITEM: TIMESTEP
400
ITEM: NUMBER OF ATOMS
100
ITEM: BOX BOUNDS ff ff ff
-5.0000000000000000e+01 5.0000000000000000e+01
-5.0000000000000000e+01 5.0000000000000000e+01
-5.0000000000000000e+01 5.0000000000000000e+01
ITEM: ATOMS id type x y z
11 1 0.274869 -1.61789 1.56792
10 1 -0.394749 -1.96019 0.882741
9 1 -1.07171 -2.57418 0.674697
8 1 -1.27139 -2.67037 1.62083
6 1 -0.858063 -1.29625 2.55755
13 1 1.41136 -3.01765 1.06946
12 1 0.776979 -2.27612 1.1035
14 1 1.65144 -2.59538 1.88666
7 1 -1.45312 -1.89684 2.11734
17 1 1.16915 -0.970625 2.97733
16 1 1.26067 -1.64216 2.30898
15 1 1.73211 -2.37937 2.78138
5 1 -0.93116 -2.00829 3.28687
4 1 -1.3346 -2.66064 3.88339
3 1 -1.69473 -2.05186 4.51986
2 1 -1.65047 -1.10055 4.66823
18 1 2.12161 -1.28643 2.99932
27 1 0.0889261 -1.21668 4.28951
19 1 2.67694 -1.24814 3.7886
20 1 3.40301 -0.587542 3.62915
50 1 -1.15637 0.711104 4.13497
49 1 -0.526586 1.41412 4.38212
21 1 2.87365 0.236981 3.78086
28 1 -0.143297 -1.88206 4.96726
29 1 0.796626 -1.735 5.21222
30 1 1.27542 -1.00887 5.54058
1 1 -1.55367 -0.280047 4.17175
199 1 -1.77217 -1.06796 6.55768
200 1 -1.1759 -1.18909 5.77181
151 1 -0.239846 -1.19495 5.97001
26 1 0.0534723 -0.746449 5.08512
152 1 0.2808 -0.426775 6.23439
23 1 1.90408 -0.510475 3.94011
31 1 1.87175 -0.250347 5.562
46 1 -2.33243 1.71665 5.89275
24 1 1.05278 -0.764112 4.29246
25 1 0.684049 -0.0261958 4.82827
22 1 2.07351 0.346412 4.23143
47 1 -1.80891 1.48143 5.10194
48 1 -1.43048 1.79067 4.25626
198 1 -1.60444 -2.04729 6.5524
196 1 -1.27407 -2.63017 8.21899
197 1 -1.77422 -2.2388 7.46002
37 1 0.204382 -1.96704 7.3624
155 1 -1.23115 -0.635348 7.49078
154 1 -0.457877 -0.766897 6.90262
153 1 0.232097 -0.123038 7.18635
36 1 1.01908 -1.8194 7.86932
32 1 2.13898 0.000685476 6.52959
34 1 1.60877 -0.206445 8.22466
35 1 1.61141 -1.06221 7.82762
158 1 -2.64888 0.220375 8.03035
45 1 -1.82681 1.31583 6.61279
44 1 -2.02731 1.69537 7.44102
33 1 1.61334 0.0318516 7.32132
43 1 -1.16588 1.85079 7.91728
195 1 -1.86805 -2.11503 8.69168
38 1 0.271668 -1.02944 7.70112
167 1 0.228362 -2.09601 9.74132
157 1 -2.2255 -0.126681 7.25533
156 1 -2.11487 -1.03124 7.56753
39 1 -0.447229 -0.793977 8.33001
159 1 -2.51576 -0.477666 8.6397
160 1 -2.67556 0.032678 9.44474
41 1 -1.17463 0.699892 7.88342
40 1 -0.489812 0.160479 8.2119
42 1 -1.75443 1.25752 8.3766
194 1 -1.26968 -2.63987 9.37046
193 1 -1.67915 -2.82348 10.2336
192 1 -1.7699 -2.06059 10.8687
168 1 1.08053 -2.39281 10.0999
169 1 1.35235 -1.44824 10.2362
165 1 -0.089548 -0.565417 9.85171
166 1 -0.240827 -1.39993 9.48063
162 1 -1.88116 0.837321 9.83805
161 1 -2.7392 0.5888 10.2491
164 1 -0.556434 0.265994 9.84641
163 1 -1.30392 0.466878 10.434
191 1 -0.808647 -1.86725 10.9731
190 1 -1.29146 -1.04993 11.4921
171 1 0.896933 -1.66184 11.9255
170 1 1.3262 -1.78098 11.1212
189 1 -1.98585 -1.23366 12.0548
173 1 -0.402644 -1.96848 12.9579
172 1 0.490172 -2.12561 12.5818
187 1 -2.62557 -1.4845 13.6255
186 1 -2.61564 -0.964483 14.3631
188 1 -2.59492 -1.71634 12.6063
174 1 -0.591669 -1.06084 12.5658
175 1 0.0103866 -0.663754 13.1697
179 1 2.12518 -0.197621 14.3679
183 1 -0.48545 -2.10297 14.6795
182 1 0.341003 -1.67731 14.5955
181 1 1.23501 -1.8842 14.3518
180 1 1.9478 -1.14159 14.2733
185 1 -1.70732 -0.8201 14.5084
184 1 -0.917642 -1.33019 14.3043
176 1 0.474721 0.21054 12.9244
178 1 1.39239 -0.131882 13.7302
177 1 1.06919 -0.556356 12.9733
ITEM: TIMESTEP
500
ITEM: NUMBER OF ATOMS
100
ITEM: BOX BOUNDS ff ff ff
-5.0000000000000000e+01 5.0000000000000000e+01
-5.0000000000000000e+01 5.0000000000000000e+01
-5.0000000000000000e+01 5.0000000000000000e+01
ITEM: ATOMS id type x y z
11 1 0.303797 -1.62479 0.78566
10 1 -0.422844 -2.1438 1.29106
9 1 -1.26475 -2.60623 1.20871
8 1 -1.28614 -2.94671 2.0688
6 1 -0.772293 -1.3606 2.44669
13 1 1.65151 -2.92716 1.02361
12 1 0.847358 -2.40481 0.985759
14 1 1.841 -2.70097 1.9231
7 1 -1.42213 -2.01118 1.97483
17 1 1.18389 -1.02818 2.87295
16 1 1.08232 -1.50607 2.06071
15 1 1.1654 -2.2509 2.53567
5 1 -1.57377 -1.56226 2.89362
4 1 -1.61369 -2.33755 3.56522
3 1 -1.83842 -1.79205 4.34547
2 1 -1.5195 -0.9006 4.03575
18 1 1.86177 -1.51315 3.30535
27 1 -0.453664 -1.32279 4.49579
19 1 2.76819 -1.23926 3.44736
20 1 3.03605 -0.395672 3.79852
50 1 -0.388966 0.505619 4.54479
49 1 -0.197639 1.42943 4.41852
21 1 2.86175 0.48344 4.22177
28 1 -0.186563 -2.25789 4.66481
29 1 0.655757 -1.9277 5.03266
30 1 1.22241 -1.26264 5.54613
1 1 -0.838654 -0.246316 4.27688
199 1 -1.89397 -1.21803 6.33051
200 1 -1.10589 -1.08426 5.84965
151 1 -0.114366 -1.25421 6.00915
26 1 0.1386 -0.806973 5.05972
152 1 0.358633 -0.476992 6.04261
23 1 1.83638 -0.899733 4.08775
31 1 1.55946 -0.353987 5.69187
46 1 -2.32449 1.69478 5.71783
24 1 0.90301 -0.751437 3.92453
25 1 0.790991 -0.258865 4.75115
22 1 1.96833 0.0594683 4.36018
47 1 -2.09356 1.14881 4.89257
48 1 -1.14597 1.24487 4.72342
198 1 -1.19814 -1.83116 6.61411
196 1 -1.90406 -2.85918 7.94581
197 1 -1.50765 -2.047 7.50241
37 1 0.346834 -1.78671 7.59538
155 1 -1.2349 -0.843649 7.17267
154 1 -0.327411 -0.424218 6.90521
153 1 0.354079 0.221935 6.75086
36 1 1.35721 -1.82472 7.72294
32 1 1.62866 -0.150459 6.63796
34 1 1.44665 -0.36881 8.34787
35 1 1.6877 -0.927259 7.61822
158 1 -2.54633 -0.090805 7.82573
45 1 -1.51381 1.73227 6.33824
44 1 -2.06878 1.25285 6.98454
33 1 1.87331 0.128569 7.64487
43 1 -1.37662 1.59755 7.54996
195 1 -1.9763 -2.49972 8.81959
38 1 0.328748 -0.882781 7.98054
167 1 0.553011 -1.91633 9.82862
157 1 -2.79135 -0.773747 7.20598
156 1 -2.02544 -0.986187 7.73652
39 1 -0.561133 -0.784048 8.40337
159 1 -2.52934 -0.518311 8.72533
160 1 -2.70127 -0.165135 9.60894
41 1 -1.20394 0.496395 7.91509
40 1 -0.43594 0.186625 8.44328
42 1 -1.66266 1.16847 8.38662
194 1 -1.15454 -2.2336 9.43166
193 1 -1.59872 -2.40545 10.257
192 1 -1.72328 -2.28201 11.1782
168 1 1.41064 -2.12116 9.42775
169 1 1.6872 -1.47241 10.1487
165 1 -0.0314223 -0.646948 10.1623
166 1 -0.0693446 -1.28937 9.4352
162 1 -2.08171 0.63003 9.50434
161 1 -2.5684 0.438546 10.3318
164 1 -0.809397 -0.475885 9.68702
163 1 -1.37185 0.101817 10.0538
191 1 -0.997195 -1.79793 10.8079
190 1 -1.55319 -1.17159 11.3833
171 1 0.803875 -2.09091 11.5979
170 1 1.24154 -2.08607 10.7374
189 1 -1.73139 -1.77762 12.149
173 1 -0.275854 -2.20624 12.8086
172 1 0.326418 -2.54478 12.22
187 1 -2.68286 -1.81211 13.7346
186 1 -2.56691 -1.38847 14.5738
188 1 -2.36896 -1.6127 12.7634
174 1 -0.6978 -1.396 13.1165
175 1 -0.406587 -0.539095 12.7113
179 1 2.32413 -0.182194 14.0425
183 1 -0.295135 -1.67443 14.2861
182 1 0.587062 -1.96489 14.509
181 1 1.39123 -1.80468 14.0097
180 1 2.00171 -1.0714 14.0545
185 1 -2.02683 -0.717999 14.1279
184 1 -1.17722 -1.19013 14.1408
176 1 0.347065 -0.306272 13.272
178 1 1.39775 -0.264052 13.7437
177 1 1.15923 0.0123403 12.8569
ITEM: TIMESTEP
600
ITEM: NUMBER OF ATOMS
100
ITEM: BOX BOUNDS ff ff ff
-5.0000000000000000e+01 5.0000000000000000e+01
-5.0000000000000000e+01 5.0000000000000000e+01
-5.0000000000000000e+01 5.0000000000000000e+01
ITEM: ATOMS id type x y z
11 1 0.358299 -2.01563 0.79469
10 1 -0.281897 -2.65907 1.15737
9 1 -1.13919 -2.27011 0.901563
8 1 -1.64055 -2.56948 1.70857
6 1 -0.601123 -1.70982 2.43374
13 1 1.40346 -2.21908 1.14387
12 1 1.0353 -2.43647 0.24787
14 1 1.76237 -2.32027 2.05959
7 1 -1.26921 -1.61418 1.7704
17 1 1.10926 -0.755369 3.19089
16 1 0.936627 -1.42035 2.51631
15 1 0.854227 -2.32944 2.32402
5 1 -0.973019 -1.53145 3.30184
4 1 -1.21347 -2.44264 3.47038
3 1 -1.47964 -1.96868 4.29133
2 1 -1.59615 -1.01914 4.26393
18 1 1.91423 -1.22921 3.06648
27 1 -0.382371 -1.50957 4.54423
19 1 2.80836 -1.45935 2.83817
20 1 2.7872 -0.677352 3.39583
50 1 -0.2052 0.263525 4.07301
49 1 -0.196701 1.2003 3.99987
21 1 2.92776 -0.591107 4.31128
28 1 -0.0714842 -2.13192 5.1968
29 1 0.748375 -1.68709 5.00073
30 1 1.23073 -1.22237 5.60148
1 1 -1.09226 -0.280215 3.95173
199 1 -1.65264 -1.58513 6.19348
200 1 -1.06497 -1.12522 5.57312
151 1 -0.270574 -1.24114 6.18623
26 1 0.0764371 -0.777468 4.95702
152 1 0.284391 -0.472743 6.04827
23 1 1.80333 -0.946227 4.06355
31 1 2.04554 -0.760889 5.6845
46 1 -1.89637 1.36212 5.61471
24 1 0.819575 -0.841172 4.15252
25 1 0.805896 -0.146077 4.78795
22 1 2.11911 -0.202183 4.58192
47 1 -1.80387 1.31044 4.66315
48 1 -0.90429 1.18615 4.64555
198 1 -1.44228 -2.30672 6.77076
196 1 -1.61025 -2.83511 7.99369
197 1 -1.63756 -1.95724 7.63369
37 1 0.664411 -1.86951 8.15683
155 1 -1.13316 -0.820102 7.12906
154 1 -0.939007 -0.112489 6.52606
153 1 -0.122723 0.422826 6.12099
36 1 1.18925 -1.97808 7.337
32 1 1.63476 -0.452784 6.47179
34 1 1.768 -0.393264 8.35009
35 1 1.65008 -1.25288 7.90215
158 1 -2.6638 -0.213691 7.87527
45 1 -1.83623 1.99975 6.40414
44 1 -1.92526 1.33283 7.08772
33 1 2.0197 -0.300876 7.36472
43 1 -1.26883 1.71744 7.63867
195 1 -1.51274 -2.22658 8.72609
38 1 0.311548 -0.964936 8.39755
167 1 0.615253 -1.61862 9.87774
157 1 -2.43098 -0.732986 7.0785
156 1 -1.78942 -0.89799 7.87256
39 1 -0.524629 -0.853864 8.01548
159 1 -2.82174 -0.258557 8.81003
160 1 -2.84442 -0.376693 9.75217
41 1 -1.19604 0.546429 7.83505
40 1 -0.46842 0.104805 8.29435
42 1 -1.20407 1.27619 8.52001
194 1 -1.66859 -2.4464 9.68047
193 1 -2.17294 -2.48458 10.4874
192 1 -1.99779 -1.65456 10.9376
168 1 1.10741 -2.44284 10.0399
169 1 1.75268 -1.71361 10.1609
165 1 -0.094002 -0.0243732 10.3804
166 1 0.17323 -0.734604 9.75339
162 1 -2.06773 0.951109 9.87022
161 1 -2.84725 0.473572 10.2091
164 1 -0.809415 0.0180456 9.77297
163 1 -1.50914 0.292945 10.3489
191 1 -1.1494 -2.02179 11.2195
190 1 -1.49382 -1.34311 11.8272
171 1 0.844136 -2.42662 11.4244
170 1 1.57156 -1.88626 11.0424
189 1 -2.13511 -2.02713 12.1967
173 1 0.02056 -1.78205 12.9492
172 1 0.147238 -2.22102 12.129
187 1 -3.14219 -1.98624 13.8073
186 1 -2.80668 -1.20167 14.2255
188 1 -2.67999 -2.06618 12.9746
174 1 -0.716883 -1.1327 12.9326
175 1 -0.189916 -0.946127 12.1271
179 1 2.1488 0.0346036 13.9674
183 1 -0.301684 -1.54227 14.6588
182 1 0.590446 -1.69044 14.4722
181 1 1.5277 -1.59757 14.6696
180 1 2.07285 -0.918432 14.2599
185 1 -1.84453 -1.27561 14.1388
184 1 -0.949138 -0.894057 14.2446
176 1 0.62859 -0.706048 12.6332
178 1 1.24871 -0.331818 13.8051
177 1 1.49801 -0.395179 12.8884
ITEM: TIMESTEP
700
ITEM: NUMBER OF ATOMS
100
ITEM: BOX BOUNDS ff ff ff
-5.0000000000000000e+01 5.0000000000000000e+01
-5.0000000000000000e+01 5.0000000000000000e+01
-5.0000000000000000e+01 5.0000000000000000e+01
ITEM: ATOMS id type x y z
11 1 0.043923 -2.12656 0.224187
10 1 -0.516049 -2.84107 0.396463
9 1 -0.79242 -2.6998 1.34908
8 1 -1.65256 -2.51354 1.77377
6 1 -0.266568 -1.64253 2.55791
13 1 1.51262 -1.97087 1.11549
12 1 0.94154 -1.88997 0.38699
14 1 1.67987 -2.51396 1.88876
7 1 -1.17873 -1.7153 2.23397
17 1 1.40822 -0.693235 3.0632
16 1 0.914468 -1.23721 2.36267
15 1 0.817849 -2.13002 2.08067
5 1 -0.538878 -1.51131 3.50345
4 1 -1.43546 -1.96145 3.66523
3 1 -1.48357 -1.64282 4.58609
2 1 -1.54477 -0.807029 4.08582
18 1 2.14914 -1.35591 2.89989
27 1 -0.465146 -1.30827 4.83869
19 1 3.0668 -1.43744 2.43406
20 1 3.00609 -0.85391 3.18336
50 1 -0.396331 0.519962 4.19961
49 1 -0.104272 1.44459 4.3828
21 1 2.71805 -0.19029 3.84885
28 1 -0.19926 -2.06585 5.33152
29 1 0.69957 -2.15931 4.95685
30 1 1.34386 -1.66045 5.43847
1 1 -1.08989 -0.0370413 3.7647
199 1 -1.76801 -1.63591 6.29545
200 1 -0.976842 -1.377 5.79324
151 1 -0.221947 -1.16667 6.34011
26 1 0.286138 -1.12752 4.24375
152 1 -0.0257119 -0.565775 5.66319
23 1 1.66999 -0.660209 4.56622
31 1 1.9135 -1.38368 6.2683
46 1 -1.89588 1.20416 5.98524
24 1 1.19162 -0.0537448 4.0336
25 1 0.518567 -0.287416 4.6999
22 1 2.38986 -0.0888656 4.71349
47 1 -1.22851 0.713571 5.55167
48 1 -0.826746 1.46708 5.02508
198 1 -1.07239 -1.99316 6.84146
196 1 -1.35473 -2.91182 8.03558
197 1 -1.32091 -2.03144 7.79889
37 1 0.426593 -1.67756 8.26372
155 1 -1.05701 -0.859596 6.96489
154 1 -0.873999 -0.129385 6.35381
153 1 -0.270618 0.348156 5.74765
36 1 0.716642 -1.62044 7.37499
32 1 1.33506 -0.667179 6.53952
34 1 2.03182 -0.578257 8.17516
35 1 1.54357 -1.32634 7.73361
158 1 -2.649 -0.484197 7.89313
45 1 -1.59923 2.07688 6.15876
44 1 -1.55405 1.51196 6.89433
33 1 2.0258 -0.502406 7.24742
43 1 -1.3385 1.81375 7.7287
195 1 -1.38906 -2.3114 8.77543
38 1 0.431922 -0.841484 8.6668
167 1 0.357783 -1.50662 9.98376
157 1 -2.32154 -0.631307 6.99834
156 1 -1.70119 -1.03208 7.63034
39 1 0.164421 -0.390649 7.86789
159 1 -2.58498 -0.640166 8.90448
160 1 -3.22745 -0.198019 9.52164
41 1 -1.09244 0.660809 7.82365
40 1 -0.670772 -0.0222025 8.27917
42 1 -0.824604 1.36247 8.45161
194 1 -1.65239 -2.54227 9.70777
193 1 -2.22614 -2.55237 10.514
192 1 -2.45841 -2.02034 11.2487
168 1 1.23737 -1.78248 10.3856
169 1 2.12041 -1.8318 10.7549
165 1 -0.403785 -0.354425 10.5938
166 1 -0.423261 -0.969867 9.87626
162 1 -2.11841 0.317122 10.0584
161 1 -3.09245 0.124383 10.3885
164 1 -0.898929 0.151357 9.93307
163 1 -1.37257 0.605508 10.5925
191 1 -1.56971 -2.38409 11.4775
190 1 -1.632 -1.43962 11.8276
171 1 0.451782 -2.31256 11.1554
170 1 1.44134 -2.29511 11.2604
189 1 -1.84089 -2.03653 12.5652
173 1 -0.377882 -1.80518 12.7339
172 1 0.2528 -2.02884 12.0337
187 1 -2.92658 -1.93971 14.0727
186 1 -2.97803 -1.35072 14.8271
188 1 -2.62916 -2.05066 13.1434
174 1 -0.473028 -0.860615 12.6797
175 1 0.0431961 -0.433828 11.9383
179 1 2.08507 -0.190183 14.3767
183 1 -0.454574 -1.37494 14.7796
182 1 0.48705 -1.46298 14.4824
181 1 1.41386 -1.78021 14.2817
180 1 1.4945 -0.905244 14.7028
185 1 -2.13219 -1.63618 15.3341
184 1 -1.42103 -1.29818 14.773
176 1 0.848622 -0.82778 12.2771
178 1 1.46718 -0.544915 13.6796
177 1 1.7275 -0.636525 12.7707
ITEM: TIMESTEP
800
ITEM: NUMBER OF ATOMS
100
ITEM: BOX BOUNDS ff ff ff
-5.0000000000000000e+01 5.0000000000000000e+01
-5.0000000000000000e+01 5.0000000000000000e+01
-5.0000000000000000e+01 5.0000000000000000e+01
ITEM: ATOMS id type x y z
11 1 0.176612 -2.01406 0.657797
10 1 -0.464444 -2.71773 0.627972
9 1 -1.20209 -3.07698 1.02337
8 1 -1.33382 -2.4106 1.66369
6 1 -0.618344 -1.33999 2.46515
13 1 1.43089 -1.36657 0.806055
12 1 0.669866 -1.31418 0.243702
14 1 1.65795 -2.05233 1.49143
7 1 -1.45144 -1.72369 2.31744
17 1 1.74761 -1.12784 2.26595
16 1 0.894405 -1.44906 1.92223
15 1 1.12284 -2.32743 2.29108
5 1 -1.05819 -1.43286 3.30534
4 1 -1.24571 -2.11741 3.92191
3 1 -1.97386 -1.75201 4.50831
2 1 -2.02825 -0.842915 4.15101
18 1 2.26892 -1.66697 2.91215
27 1 -0.508703 -1.375 4.28399
19 1 2.9107 -1.0862 2.56734
20 1 3.12074 -0.859755 3.55614
50 1 -0.930219 0.474327 4.21553
49 1 -0.0900604 0.705272 4.70117
21 1 3.08255 0.0356249 3.99281
28 1 -0.15485 -2.06808 4.86338
29 1 0.749551 -1.93039 5.02306
30 1 1.63952 -1.75466 5.22618
1 1 -1.35116 -0.319738 3.88828
199 1 -1.86502 -1.81593 6.33065
200 1 -1.00585 -1.48548 6.35367
151 1 -0.141124 -1.17842 6.00779
26 1 -0.116172 -0.557925 4.21248
152 1 0.374645 -0.369393 6.05163
23 1 1.83234 -0.749357 4.25143
31 1 2.07242 -1.27077 5.88917
46 1 -1.97257 1.087 5.92652
24 1 1.28511 0.0663271 4.08332
25 1 0.833579 -0.688372 4.42955
22 1 2.46437 -0.126673 4.69008
47 1 -1.5895 1.0502 5.03424
48 1 -0.724764 1.49133 4.99241
198 1 -1.46708 -2.17332 7.08297
196 1 -1.20454 -3.11775 8.28632
197 1 -1.10437 -2.25374 7.9544
37 1 -0.09175 -1.26186 8.24985
155 1 -1.29142 -1.00039 7.16917
154 1 -0.848043 -0.283347 6.72431
153 1 -0.407886 0.284242 6.14185
36 1 0.768142 -1.65995 8.13794
32 1 1.43964 -0.812138 6.40848
34 1 1.97926 -1.11117 7.4466
35 1 1.35538 -0.907869 8.09994
158 1 -3.20861 -0.904155 7.85333
45 1 -1.2257 1.7105 6.13841
44 1 -1.63616 1.52739 6.96322
33 1 1.592 -0.218364 7.14986
43 1 -1.04963 1.83033 7.66662
195 1 -1.14008 -2.55184 9.0268
38 1 0.389899 -0.52583 8.65297
167 1 0.439241 -1.04068 10.1601
157 1 -2.47717 -0.895578 7.19086
156 1 -1.82568 -0.877923 7.9262
39 1 -0.0822305 -0.263668 7.84552
159 1 -3.05986 -0.943213 8.79134
160 1 -3.27685 -0.0500565 9.12521
41 1 -1.06969 0.648719 8.23382
40 1 -0.912256 -0.249868 8.29901
42 1 -1.2203 1.50572 8.56368
194 1 -1.82478 -2.53463 9.75507
193 1 -2.02988 -2.93254 10.5822
192 1 -2.28504 -1.98782 10.7129
168 1 0.942417 -1.90309 10.2375
169 1 1.67227 -1.42904 10.633
165 1 -0.217805 -0.181121 10.3125
166 1 -0.170245 -0.715781 9.50147
162 1 -2.20093 0.644819 9.66073
161 1 -3.02909 0.373526 9.93088
164 1 -1.10397 0.17317 10.3564
163 1 -1.98613 -0.0857508 10.2012
191 1 -1.58076 -1.8561 11.3525
190 1 -1.97065 -1.56176 12.13
171 1 0.347574 -2.13822 11.339
170 1 1.3078 -2.08251 11.2386
189 1 -1.98245 -1.47068 13.0874
173 1 -0.378317 -1.50873 12.2646
172 1 0.516083 -1.83088 12.2245
187 1 -2.6017 -1.65214 14.1767
186 1 -2.97609 -1.16652 14.918
188 1 -1.97742 -2.24711 13.67
174 1 -0.779627 -0.670124 12.263
175 1 0.0656791 -0.762034 11.7805
179 1 2.2509 -0.831794 14.0284
183 1 -0.596078 -1.42088 14.7865
182 1 0.279916 -1.75838 14.7992
181 1 1.24252 -1.85601 14.6463
180 1 1.83612 -1.07076 14.8671
185 1 -2.2336 -1.40424 15.4739
184 1 -1.49138 -1.12824 14.886
176 1 0.646299 -0.880814 12.5351
178 1 1.43586 -0.881042 13.589
177 1 1.44008 -0.405277 12.7631
ITEM: TIMESTEP
900
ITEM: NUMBER OF ATOMS
100
ITEM: BOX BOUNDS ff ff ff
-5.0000000000000000e+01 5.0000000000000000e+01
-5.0000000000000000e+01 5.0000000000000000e+01
-5.0000000000000000e+01 5.0000000000000000e+01
ITEM: ATOMS id type x y z
11 1 -0.18448 -1.09097 0.186505
10 1 -0.663565 -1.94057 0.587903
9 1 -1.02643 -2.84707 0.831143
8 1 -1.28741 -2.88451 1.77474
6 1 -0.312293 -1.55226 2.44537
13 1 1.15637 -1.28486 0.960893
12 1 0.605237 -1.73666 0.320449
14 1 1.85787 -1.92501 1.2187
7 1 -1.17042 -1.90622 2.12882
17 1 1.46025 -1.14023 2.27358
16 1 0.702728 -1.75037 2.14663
15 1 1.57581 -2.1394 2.14196
5 1 -0.931884 -1.37372 3.20222
4 1 -1.09755 -2.0615 4.0023
3 1 -2.06696 -2.22365 4.23894
2 1 -1.88735 -1.33675 4.01185
18 1 2.23511 -1.35373 2.84183
27 1 -0.122997 -1.20924 4.73134
19 1 2.92283 -0.765769 2.87227
20 1 3.14042 -1.15106 3.71543
50 1 -0.609258 0.06474 3.88873
49 1 -0.357263 0.832222 4.35036
21 1 3.37099 -0.167252 3.63768
28 1 -0.0184055 -2.23787 4.77915
29 1 0.706224 -1.71366 4.48714
30 1 1.2534 -1.37319 5.1863
1 1 -1.17293 -0.638418 4.22621
199 1 -1.69054 -1.98328 6.66098
200 1 -1.11909 -1.55253 6.00953
151 1 -0.290456 -1.00056 5.92707
26 1 0.178366 -0.855676 3.902
152 1 0.436536 -0.373797 6.23236
23 1 2.0766 -0.761093 3.80943
31 1 1.73999 -1.47537 6.00805
46 1 -1.77339 1.34759 5.66953
24 1 1.61837 0.0498079 4.04541
25 1 0.890743 -0.532738 4.37805
22 1 2.70913 -0.296336 4.35348
47 1 -1.62663 0.650374 5.00611
48 1 -0.833768 1.25353 5.04257
198 1 -0.787454 -2.09434 6.90881
196 1 -0.965922 -3.45165 8.21348
197 1 -1.0667 -2.46046 7.75474
37 1 -0.0442444 -1.23652 8.68747
155 1 -1.034 -1.18311 7.41338
154 1 -1.0751 -0.307385 6.9116
153 1 -0.480373 -0.0074535 6.21331
36 1 0.951832 -1.38053 8.52663
32 1 1.26517 -0.986099 6.63613
34 1 2.15317 -1.14877 7.52266
35 1 1.68295 -0.757017 8.26754
158 1 -3.23548 -1.00743 7.88974
45 1 -1.22796 1.9575 6.14281
44 1 -1.48279 1.64 6.98913
33 1 1.59839 -0.372289 7.323
43 1 -0.925159 1.47982 7.6455
195 1 -0.746935 -2.71827 8.82378
38 1 0.405683 -0.448339 8.44154
167 1 0.223185 -1.89849 9.60179
157 1 -2.53576 -0.725412 7.17416
156 1 -1.91859 -1.09226 7.802
39 1 -0.309312 -0.0168376 7.91635
159 1 -3.04714 -1.24437 8.81591
160 1 -3.08538 -0.36594 9.06668
41 1 -1.15195 0.469822 8.69901
40 1 -1.26788 -0.255894 8.03521
42 1 -1.60134 1.21468 8.25114
194 1 -1.39657 -2.18476 9.25342
193 1 -1.42436 -2.78186 10.0628
192 1 -1.75321 -1.96991 10.4899
168 1 1.14666 -1.72512 9.84706
169 1 1.70034 -1.42805 10.6184
165 1 -0.558683 -0.316542 10.1019
166 1 -0.379719 -1.1573 9.62291
162 1 -2.4242 0.503727 10.3208
161 1 -3.09949 -0.099655 9.98051
164 1 -1.28558 0.107804 10.543
163 1 -1.71321 0.146613 9.73536
191 1 -1.57672 -1.7522 11.4165
190 1 -1.97519 -2.12105 12.228
171 1 0.295506 -2.24829 11.0108
170 1 1.28444 -2.23087 10.9969
189 1 -1.58123 -1.87928 13.0911
173 1 -0.462503 -1.41553 11.7173
172 1 0.205378 -2.05124 11.9311
187 1 -3.00782 -1.5078 14.1386
186 1 -2.63649 -0.827138 14.7145
188 1 -2.2167 -1.91407 13.8022
174 1 -0.740361 -0.723776 12.3362
175 1 0.094571 -0.575498 11.8908
179 1 2.49365 -0.984416 14.3026
183 1 -0.711928 -1.72195 15.3516
182 1 0.139868 -1.34706 15.6526
181 1 0.896594 -1.42375 15.0122
180 1 1.70404 -0.997073 14.7481
185 1 -1.97251 -1.2812 15.2153
184 1 -1.20715 -1.14265 14.7424
176 1 0.900317 -0.595407 12.3831
178 1 1.87093 -1.39543 13.7131
177 1 1.55413 -1.18262 12.7598
ITEM: TIMESTEP
1000
ITEM: NUMBER OF ATOMS
100
ITEM: BOX BOUNDS ff ff ff
-5.0000000000000000e+01 5.0000000000000000e+01
-5.0000000000000000e+01 5.0000000000000000e+01
-5.0000000000000000e+01 5.0000000000000000e+01
ITEM: ATOMS id type x y z
10 1 -0.562615 -1.88534 0.586547
9 1 -1.11053 -2.7247 0.773066
12 1 0.900119 -1.85741 0.341603
14 1 1.49992 -2.46371 1.03172
11 1 0.218851 -1.31899 0.822111
13 1 1.61542 -1.46083 0.948124
8 1 -0.569166 -2.58091 1.57746
6 1 -0.0780815 -1.75393 2.53245
7 1 -0.973868 -2.03791 2.34945
16 1 1.11208 -1.78052 2.08868
15 1 1.8005 -2.37686 1.90651
18 1 2.05998 -1.73969 2.93466
17 1 1.43519 -1.04657 2.54771
19 1 2.61596 -1.0073 2.57352
3 1 -1.8549 -1.87123 4.19618
5 1 -0.278113 -2.23243 3.39173
4 1 -1.25158 -2.27652 3.5855
28 1 0.241746 -2.06442 4.52466
2 1 -1.68669 -1.00011 4.52271
27 1 -0.148489 -1.25449 4.49664
50 1 -0.63606 -0.410308 4.55974
1 1 -1.03684 -0.891445 3.80849
29 1 0.888118 -1.42482 4.20733
26 1 0.0601176 -0.65977 3.70147
25 1 0.910405 -0.258337 4.03526
23 1 2.422 -0.504868 3.98152
24 1 1.61187 -0.555148 4.55914
20 1 3.27076 -0.921541 3.31015
22 1 3.20419 -0.10525 4.33487
48 1 -0.855307 0.852622 4.63464
21 1 3.22605 0.0440612 3.38196
31 1 1.52873 -1.60034 5.83787
151 1 -0.438916 -0.972281 5.77811
30 1 1.05874 -1.21285 5.09054
152 1 0.235248 -0.410795 6.2065
32 1 1.36717 -0.69883 6.1676
49 1 -0.0235279 0.316091 4.74109
46 1 -0.807957 1.38407 5.81155
47 1 -1.32351 0.705198 5.42502
153 1 -0.583109 0.10034 6.10679
199 1 -1.56416 -2.16655 6.5438
198 1 -1.30387 -2.04121 7.4735
157 1 -2.84725 -0.73278 7.14232
156 1 -1.91292 -0.941761 6.81264
200 1 -0.96775 -1.56169 6.25703
155 1 -1.14862 -0.9466 7.48441
154 1 -1.15891 -0.243361 6.7678
33 1 1.49307 -0.288436 7.04546
39 1 -0.510697 0.10408 7.78156
45 1 -1.68583 1.6425 6.33733
44 1 -1.71284 1.60276 7.30778
196 1 -1.93621 -3.53871 8.50967
197 1 -1.54772 -2.79022 8.03918
195 1 -1.47393 -3.08894 9.18229
158 1 -3.46887 -0.687196 7.88244
159 1 -3.59698 -0.886351 8.87603
160 1 -2.64492 -0.950363 9.07389
40 1 -1.4198 -0.0876872 8.07938
37 1 0.0892641 -1.15904 8.49617
36 1 0.959864 -1.18952 8.92391
38 1 0.000762145 -0.147134 8.5924
34 1 2.00204 -0.253528 7.88905
35 1 1.63174 -1.05952 8.25359
41 1 -1.69114 0.679117 8.53282
42 1 -1.8408 1.60753 8.53187
43 1 -1.03932 1.92076 8.05085
194 1 -1.64595 -2.2404 9.46625
193 1 -1.69099 -2.9146 10.224
192 1 -1.82246 -2.00692 10.5896
167 1 0.0339904 -1.69257 9.80969
161 1 -3.03518 -0.194986 9.55724
165 1 -0.808864 -0.30873 9.9917
166 1 -0.282612 -0.874221 9.40407
168 1 0.891803 -1.3703 10.1817
162 1 -2.41737 0.110871 10.1922
163 1 -1.7984 0.536741 9.6137
164 1 -1.12086 0.608041 10.2214
171 1 0.629358 -2.60413 11.2528
170 1 1.47328 -2.10706 11.1101
172 1 0.248407 -1.87638 11.7459
191 1 -1.57148 -1.45232 11.348
190 1 -1.70624 -1.36578 12.3068
173 1 -0.583866 -1.37496 11.8375
174 1 -0.68732 -0.657998 12.4568
169 1 1.45286 -1.15682 10.9509
175 1 0.23916 -0.660117 12.295
176 1 1.20014 -0.903813 11.9992
177 1 2.01375 -1.18396 12.4305
189 1 -1.8667 -2.14752 12.8495
188 1 -2.34331 -1.57934 13.4266
187 1 -3.01188 -1.1034 13.8245
178 1 2.13026 -1.16396 13.4486
185 1 -2.17581 -1.74199 15.0887
179 1 2.4889 -1.68131 14.2603
186 1 -2.69204 -0.969745 14.7164
183 1 -0.488625 -1.05458 15.4712
184 1 -1.30835 -1.20314 15.0857
182 1 0.371935 -1.20009 15.0906
181 1 1.27947 -1.13768 15.4862
180 1 1.85429 -1.17102 14.7453
