ITEM: TIMESTEP
0
ITEM: NUMBER OF ATOMS
400
ITEM: BOX BOUNDS ff ff ff
-5.0000000000000000e+01 5.0000000000000000e+01
-5.0000000000000000e+01 5.0000000000000000e+01
-5.0000000000000000e+01 5.0000000000000000e+01
ITEM: ATOMS id type x y z
316 2 -1.0017 -2.25969 -14.8823
317 2 -1.53791 -1.67503 -14.3027
318 2 -1.76759 -1.1 -15.0596
319 2 -2.26296 -0.861349 -14.2718
315 2 -0.625451 -1.39961 -14.9804
314 2 -0.11686 -1.41329 -14.1772
312 2 -0.274316 -0.260046 -14.8017
313 2 0.37875 -0.591479 -14.087
295 2 1.48057 -0.946513 -14.3048
296 2 2.19092 -0.417791 -14.7729
310 2 -1.61885 0.913729 -14.8436
311 2 -0.93804 0.32865 -14.3557
308 2 -0.740258 1.30282 -14.294
307 2 -0.099493 1.8966 -14.6669
309 2 -1.5169 1.77396 -14.4641
321 2 -1.4833 -1.62769 -13.313
323 2 -0.565475 -2.05083 -12.5498
320 2 -2.13563 -0.960142 -13.3102
322 2 -0.758166 -1.18535 -12.9142
293 2 0.761464 -0.577268 -12.8678
294 2 1.41085 -1.1615 -13.3426
298 2 1.87418 -0.092136 -13.0009
297 2 1.84961 -0.074195 -13.9419
179 1 -2.5753 0.038289 -13.3307
181 1 -1.63017 0.195888 -12.5758
178 1 -1.65549 0.284042 -13.56
175 1 -1.93722 1.29337 -12.5297
177 1 -0.79891 0.638887 -13.2861
176 1 -1.1485 1.5254 -13.1065
299 2 1.23297 0.57777 -13.0093
300 2 0.492595 1.18305 -12.9749
303 2 1.78551 1.52931 -12.5467
306 2 -0.183004 2.16797 -13.6964
304 2 1.52372 1.69881 -13.4789
305 2 0.717259 2.0025 -13.9512
301 2 0.696777 2.15347 -12.8363
324 2 -0.566694 -2.094 -11.6104
325 2 0.200203 -2.48784 -11.216
326 2 1.1636 -2.33363 -11.5172
180 1 -2.48111 -0.283619 -12.4004
172 1 -1.58447 -0.107265 -11.3153
292 2 0.980999 -0.618515 -11.8948
289 2 2.50697 -0.352171 -11.0234
173 1 -2.19171 0.662761 -11.558
182 1 -0.937651 0.332328 -11.8922
282 2 -0.044514 1.524 -11.2276
184 1 -0.340637 0.076008 -11.1406
291 2 1.48006 0.205985 -11.8751
183 1 0.041502 0.223983 -11.9718
290 2 2.25453 0.49814 -11.408
174 1 -1.84046 1.56821 -11.5657
302 2 1.10158 1.87207 -12.0086
284 2 1.22283 2.08098 -10.9753
168 1 -0.682112 -2.05165 -10.3644
166 1 -0.16868 -1.91135 -9.41325
167 1 0.166133 -2.52504 -10.0537
328 2 1.1931 -1.74161 -9.62983
327 2 1.15229 -2.09532 -10.5902
171 1 -1.8649 -0.55227 -10.5375
169 1 -0.4951 -1.17709 -10.59
170 1 -1.40375 -1.31994 -10.2697
164 1 -1.1421 -0.631619 -9.41588
186 1 0.220873 -0.832641 -9.5644
185 1 0.153088 -0.266655 -10.326
288 2 2.08058 -0.133987 -10.1202
276 2 -1.56308 1.17169 -10.0066
275 2 -2.44064 0.797941 -9.9642
283 2 0.56844 1.42683 -10.531
286 2 1.32767 1.25333 -9.71684
285 2 1.60888 1.33357 -10.6347
287 2 2.20779 0.749742 -9.78627
277 2 -1.62185 1.88412 -9.39788
281 2 -0.240079 2.08001 -10.4551
280 2 0.22278 1.93112 -9.63865
12 1 -1.96923 -1.58706 -8.47097
165 1 -1.08592 -1.60458 -9.18924
11 1 -1.28871 -2.13964 -8.09636
329 2 0.781416 -1.68372 -8.81545
330 2 0.094169 -1.74348 -8.13853
30 1 1.37072 -1.73908 -7.82975
13 1 -1.62216 -0.764525 -8.21923
163 1 -0.567609 -0.714115 -8.65648
162 1 0.25348 -0.432157 -8.21389
29 1 1.81307 -1.52697 -8.66161
28 1 2.36517 -0.697084 -8.51383
274 2 -2.29173 1.07891 -9.09033
273 2 -1.78485 0.574403 -8.39167
188 1 -0.00314 0.889302 -8.72565
272 2 -1.28912 1.40091 -8.24779
189 1 -0.387131 0.688597 -7.84701
187 1 0.083647 0.125593 -9.35594
161 1 0.909266 0.242124 -8.56866
160 1 1.47197 0.970951 -8.62456
278 2 -0.821323 2.21276 -9.03504
279 2 0.176266 2.39253 -8.8016
10 1 -0.716091 -2.12343 -7.35896
9 1 -0.778487 -1.7461 -6.42407
331 2 0.251065 -2.18296 -7.34905
31 1 1.16034 -2.22661 -7.04867
332 2 0.028683 -2.57733 -6.49284
16 1 -1.62888 -1.15599 -6.61285
15 1 -1.29474 -0.316284 -6.90215
14 1 -1.09046 -1.04967 -7.51023
25 1 0.983587 -0.611556 -6.85511
26 1 1.50835 -0.658045 -7.63893
24 1 0.548184 -1.46514 -6.61011
32 1 1.68846 -1.56048 -6.63464
27 1 2.40996 -0.391317 -7.59103
190 1 -0.060479 1.1168 -6.99175
270 2 -1.15817 1.2535 -6.57991
159 1 1.08639 1.25947 -7.75875
158 1 0.981209 0.9081 -6.83279
271 2 -1.32796 1.80766 -7.37282
191 1 0.134153 2.05355 -7.13115
192 1 1.05615 2.19922 -6.89409
7 1 -0.765244 -1.78011 -5.02244
8 1 -1.16376 -2.20125 -5.73857
333 2 0.242751 -2.52225 -5.53541
334 2 0.662911 -1.67884 -5.35028
17 1 -2.29629 -1.10841 -5.89445
18 1 -1.65516 -1.2091 -5.18942
19 1 -1.7009 -0.311776 -5.08488
22 1 -0.03195 -0.028552 -5.56122
20 1 -0.800921 -0.293557 -4.812
33 1 1.44827 -1.12604 -5.82372
23 1 0.363552 -0.76887 -5.93812
34 1 2.16213 -0.604629 -6.18031
35 1 2.13396 -0.747032 -5.24193
268 2 -1.61593 0.943273 -5.27173
269 2 -0.740607 1.13085 -5.74634
156 1 0.959993 0.400188 -5.26128
157 1 1.05468 0.160127 -6.19391
155 1 1.49352 1.10361 -4.81712
36 1 1.9573 0.159707 -5.38016
195 1 -0.612265 2.32756 -6.04596
196 1 -0.343178 2.53988 -5.15426
193 1 0.754393 2.28074 -6.00259
194 1 0.053448 1.63977 -6.07413
197 1 0.446502 2.24436 -4.72752
6 1 -0.367414 -2.15377 -4.18909
5 1 -0.650894 -2.43659 -3.34432
4 1 -1.21014 -1.68896 -3.42286
335 2 0.799216 -2.36909 -4.66536
336 2 1.47706 -1.96806 -4.03349
337 2 1.05493 -2.26335 -3.25134
264 2 -1.91359 -0.151054 -3.29641
3 1 -0.480793 -1.04026 -3.50714
21 1 0.134886 -0.163875 -4.54734
38 1 2.40426 -0.951814 -4.12384
37 1 1.90688 -0.187689 -4.41637
39 1 2.05696 -0.511585 -3.38221
267 2 -1.90664 1.46561 -4.50611
266 2 -1.8741 0.971003 -3.72894
265 2 -1.35452 0.156033 -3.99039
152 1 -0.343186 1.13427 -3.69107
153 1 0.432884 0.724204 -3.97954
154 1 1.4073 0.596519 -3.94251
198 1 0.528555 2.0313 -3.78607
53 1 -0.616925 -2.31795 -2.08577
339 2 1.55167 -1.80021 -2.07398
338 2 0.71409 -1.6375 -2.60732
263 2 -2.2468 -0.677016 -2.51277
52 1 -1.04303 -1.41882 -1.96714
50 1 -0.173965 -0.133795 -1.77362
2 1 0.136709 -0.718683 -2.84642
41 1 1.92214 -0.012111 -1.76884
262 2 -2.37554 0.205154 -2.24264
261 2 -1.59294 0.04077 -1.69171
150 1 -0.863004 1.12992 -2.73358
200 1 0.670041 1.09419 -2.8137
1 1 0.179043 0.267606 -2.53916
43 1 1.13153 1.08965 -1.86366
40 1 1.63627 0.010168 -2.71746
42 1 2.01646 0.995329 -1.6
149 1 -1.71614 1.70586 -2.54122
151 1 -0.118647 1.70414 -2.94292
147 1 -0.891955 2.02352 -1.65342
199 1 1.06099 1.96047 -2.94318
44 1 1.75672 1.92556 -1.97338
57 1 -1.27258 -1.71125 -0.057509
56 1 -0.767587 -2.47616 -0.251443
55 1 0.041186 -2.05375 -0.615818
54 1 0.108812 -2.40036 -1.51084
341 2 1.07308 -2.12598 -0.449929
340 2 0.902264 -1.84401 -1.37033
58 1 -1.08822 -0.88176 -0.429612
51 1 -0.23998 -1.05884 -1.47859
59 1 -0.314681 -0.374851 -0.22701
342 2 1.18281 -1.20287 -0.096901
141 1 1.64379 -0.144432 -0.297732
260 2 -2.45888 0.568582 -1.32235
259 2 -1.91084 0.276979 -0.611346
47 1 -0.054314 1.32854 -1.3261
48 1 0.12309 0.743984 -0.532157
46 1 0.803169 1.49382 -0.913683
49 1 0.399162 0.066643 -1.08945
142 1 1.82453 0.753142 -0.401438
148 1 -1.79812 1.67003 -1.52467
146 1 -0.586312 2.18047 -0.786483
45 1 1.10806 2.28651 -1.4435
144 1 0.998354 2.27645 -0.317077
145 1 0.069568 2.02867 -0.089073
143 1 1.80398 1.70688 -0.141822
211 2 -0.135592 -1.83471 1.54114
210 2 -0.766528 -1.64621 0.796965
343 2 0.877481 -1.74149 0.627921
258 2 -1.90621 -0.032005 0.28087
209 2 -1.6973 -1.37504 0.852613
257 2 -1.1143 -0.334846 0.813263
140 1 0.727482 -0.258803 0.033926
344 2 0.838346 -1.15927 1.39206
345 2 0.203367 -0.452737 1.52602
138 1 2.27278 -0.060312 1.00721
254 2 -2.46945 0.436022 1.0823
62 1 -1.63076 1.50087 0.950999
60 1 -0.321641 0.410654 0.350107
61 1 -0.852533 1.00075 0.867901
139 1 1.24435 0.109323 0.77295
65 1 0.295771 1.32222 1.27388
137 1 2.37709 0.79257 1.48199
63 1 -0.95532 2.18253 0.752069
64 1 -0.01931 2.18335 1.24362
208 2 -1.44759 -1.94519 1.63852
206 2 -1.0991 -1.87936 2.62876
213 2 1.17936 -2.29653 1.99848
212 2 0.286131 -2.15087 2.33756
214 2 1.73331 -1.61412 1.6003
255 2 -2.06442 -0.163585 1.73978
207 2 -1.65973 -1.21162 2.22755
348 2 -0.631096 -0.373112 3.12205
217 2 0.93703 -1.37589 2.95571
216 2 1.4486 -0.836211 2.34614
346 2 0.253482 -0.056229 2.38487
215 2 2.34409 -1.12816 2.24838
252 2 -1.80986 1.48533 2.60602
253 2 -2.03641 0.808942 1.88858
256 2 -1.16713 0.153636 1.67532
347 2 -0.332896 0.487789 2.88252
66 1 0.515394 1.20158 2.22847
136 1 1.48975 0.817722 1.88796
135 1 1.94882 0.648821 2.78388
67 1 0.400228 2.17461 2.31684
68 1 0.884697 1.77153 3.04951
205 2 -0.437822 -2.26938 3.19259
204 2 -0.935709 -2.06977 4.02333
203 2 -1.49724 -1.65441 4.62812
202 2 -1.77944 -0.856217 4.18496
350 2 -0.357083 -0.537917 4.62706
218 2 1.49958 -1.30071 3.65693
227 2 0.174365 -1.44466 4.64066
349 2 0.04626 -0.412923 3.76479
219 2 2.26937 -0.928011 4.06699
220 2 1.97714 -0.20823 3.53109
251 2 -2.08976 0.859 3.27697
250 2 -1.57963 0.200191 3.81344
249 2 -1.26944 1.10517 3.94054
133 1 1.12808 0.624116 3.61972
132 1 0.199219 0.940767 3.70841
134 1 2.05265 0.909942 3.72999
221 2 2.59514 0.036165 4.27045
130 1 -0.756714 2.22308 3.75122
131 1 -0.177145 1.63259 3.20055
129 1 -0.466421 1.8002 4.58269
69 1 0.865164 1.6584 4.0028
228 2 -0.051094 -2.23391 5.12482
229 2 0.959906 -2.08786 5.09665
230 2 1.6757 -1.65457 5.6112
201 2 -1.68259 -0.019418 4.75871
399 2 -1.66216 -1.24746 5.93423
400 2 -1.25013 -0.790503 5.16598
351 2 -0.411807 -0.951562 5.60105
226 2 0.72189 -0.850897 5.22783
352 2 0.332106 -1.32074 6.16268
223 2 2.02832 -0.380608 5.22193
231 2 1.80346 -0.964879 6.22208
246 2 -2.03504 1.06702 5.88982
224 2 1.34432 0.143647 5.59833
225 2 0.445438 0.034144 5.35985
222 2 2.15172 0.546813 4.96294
247 2 -1.77203 1.92346 5.60659
248 2 -1.50993 1.64944 4.6991
128 1 -0.566744 1.57618 5.51537
70 1 1.05748 2.07586 4.83705
71 1 1.02218 2.12026 5.79126
398 2 -1.40759 -2.09559 6.34187
396 2 -0.952521 -2.41284 7.76197
397 2 -0.673016 -2.47058 6.83956
237 2 0.282369 -2.04435 7.00801
355 2 -1.09498 -0.801625 7.47704
354 2 -0.393239 -0.989807 6.84964
353 2 0.362652 -0.487919 6.62961
236 2 0.911541 -1.35124 7.0555
232 2 2.48769 -0.403574 6.54057
234 2 2.10034 -0.308777 7.52554
235 2 1.58173 -1.11965 7.74639
358 2 -2.53477 0.264623 7.30449
245 2 -1.81032 1.51225 6.71653
244 2 -1.26427 1.11224 7.42607
127 1 -0.309388 1.13633 6.32979
73 1 1.01862 0.960348 7.19429
233 2 1.64434 0.158076 6.77419
75 1 2.11443 1.48845 7.73925
243 2 -1.10086 2.08668 7.67088
72 1 1.2639 1.79737 6.66824
126 1 0.161834 1.96619 6.32348
125 1 0.326561 2.1689 7.28733
395 2 -0.980543 -1.97394 8.64862
238 2 0.003645 -1.695 7.84888
367 2 0.24886 -1.97911 9.3326
357 2 -2.37021 -0.625189 7.82521
356 2 -1.75238 -1.33391 8.02499
239 2 -0.165317 -0.898209 8.3071
81 1 0.795656 -1.05599 9.17916
78 1 2.15075 -0.778364 8.63218
80 1 1.725 -1.43327 9.22652
359 2 -1.8391 0.205772 7.98989
360 2 -1.7361 0.006112 8.94962
241 2 -1.00182 0.638612 8.55751
240 2 -0.368869 0.055497 8.17545
242 2 -0.818417 1.54935 8.45631
74 1 1.17086 1.39017 7.98105
123 1 0.51528 1.40055 8.77527
76 1 2.43904 0.808786 8.37143
77 1 2.02547 0.102963 8.86411
121 1 -0.275769 2.34981 9.05122
124 1 0.362299 2.19802 8.2371
122 1 0.610837 2.16761 9.34021
394 2 -1.34743 -1.83383 9.50559
393 2 -1.33682 -1.58997 10.4313
392 2 -0.602888 -2.13381 10.8997
368 2 0.413525 -2.38614 10.1878
369 2 1.03441 -1.67794 10.3917
365 2 -0.216119 -0.644216 9.48217
366 2 -0.401931 -1.46973 9.85279
114 1 -0.220216 -0.064124 10.8506
83 1 1.09003 -0.192415 10.9134
82 1 1.00045 -0.639204 10.0403
79 1 2.18408 -0.738471 9.60092
362 2 -2.30914 0.158234 10.6278
361 2 -2.34417 0.244089 9.68549
364 2 -0.675973 0.179012 9.73505
363 2 -1.38677 0.329251 10.3358
120 1 -0.45158 1.54463 9.6057
116 1 -1.40985 1.18836 10.9223
86 1 1.02455 0.802837 10.646
85 1 1.92294 1.26397 10.8292
119 1 -0.208275 2.04486 10.4051
118 1 -1.12674 2.34997 10.5151
117 1 -1.506 1.60776 9.95684
391 2 -0.358 -1.64602 11.6574
390 2 -1.34036 -1.74153 11.5962
371 2 1.21629 -2.14711 11.926
370 2 1.56316 -2.11646 11.0547
389 2 -1.57622 -1.0471 12.255
113 1 0.282608 -0.903876 10.9814
112 1 0.826235 -0.78581 11.8232
111 1 1.60232 -0.696677 12.4019
115 1 -0.573462 0.800688 11.0422
89 1 0.296804 0.819283 11.7539
84 1 1.74131 0.473733 11.3162
110 1 2.23114 0.006902 12.4786
88 1 0.051279 1.6964 11.7483
87 1 0.733164 1.64178 11.0541
373 2 -0.041909 -2.09916 12.5154
372 2 0.884583 -1.8596 12.7506
387 2 -2.14153 -1.54527 13.6266
386 2 -2.39385 -0.65306 13.6457
388 2 -1.3332 -1.46359 13.1031
374 2 -0.196818 -1.19755 12.7426
91 1 0.257298 -0.080003 12.5586
375 2 0.238307 -1.20479 13.5922
379 2 1.89192 -0.899042 13.7862
96 1 -2.1302 0.947734 13.8901
94 1 -1.56878 0.210904 12.5442
95 1 -1.61636 0.286517 13.5657
93 1 -0.927835 0.887335 12.887
92 1 -0.035851 0.598736 13.2197
100 1 -0.520871 1.27659 13.9611
90 1 0.831671 0.730669 12.521
108 1 1.99436 1.07471 13.5812
109 1 2.09973 0.912565 12.6352
107 1 2.54757 0.355155 13.8994
383 2 -0.702893 -1.86498 14.8395
382 2 0.246648 -1.89558 14.6793
381 2 1.18421 -1.98883 14.641
380 2 1.95917 -1.60451 14.3801
385 2 -1.83556 -0.700987 14.4478
384 2 -1.08156 -1.27391 14.2158
376 2 0.204679 -0.382251 14.0891
378 2 1.52851 -0.165061 14.2834
98 1 -1.20502 1.20417 15.0231
99 1 -0.293169 1.52377 14.9177
377 2 0.736355 0.430811 14.0944
104 1 1.08232 1.36609 14.361
105 1 1.80736 1.01508 14.8332
106 1 2.45595 0.294728 14.8826
97 1 -1.78136 1.6814 14.4249
101 1 -0.726884 2.19061 14.1741
103 1 0.798317 1.94276 15.0552
102 1 0.153438 2.39644 14.4486
ITEM: TIMESTEP
100
ITEM: NUMBER OF ATOMS
400
ITEM: BOX BOUNDS ff ff ff
-5.0000000000000000e+01 5.0000000000000000e+01
-5.0000000000000000e+01 5.0000000000000000e+01
-5.0000000000000000e+01 5.0000000000000000e+01
ITEM: ATOMS id type x y z
316 2 -0.919309 -2.33 -14.7191
317 2 -1.82012 -2.00468 -14.4063
318 2 -1.85482 -1.20624 -14.9414
319 2 -2.52311 -0.779719 -14.3201
315 2 -0.457336 -1.49192 -15.1067
314 2 0.11482 -1.56498 -14.3072
312 2 -0.366309 -0.381638 -14.8029
313 2 0.138859 -0.646781 -13.9432
295 2 1.37744 -0.870864 -14.4747
296 2 1.93592 -0.216381 -15.072
310 2 -1.37568 0.614402 -15.0253
311 2 -0.615065 0.572507 -14.4508
308 2 -1.01798 1.80508 -14.3896
307 2 -0.379152 2.46716 -14.6716
309 2 -1.84795 1.44888 -14.7232
321 2 -1.49328 -1.73413 -13.2163
323 2 -0.35699 -2.24924 -12.3768
320 2 -1.73748 -0.823923 -13.6733
322 2 -0.72994 -1.39463 -12.7377
293 2 0.676294 -0.634572 -12.97
294 2 1.10047 -1.29589 -13.6554
298 2 1.94792 -0.23711 -13.1721
297 2 2.06237 -0.0121818 -14.0862
179 1 -2.62291 -0.154793 -13.4611
181 1 -1.47346 -0.278142 -12.3951
178 1 -1.71091 0.356848 -13.5081
175 1 -1.88708 1.59739 -12.6977
177 1 -0.736522 0.587708 -13.4564
176 1 -0.930651 1.35658 -12.8759
299 2 1.13414 0.410421 -13.2456
300 2 0.455335 1.15087 -13.1551
303 2 1.99423 1.68834 -12.6336
306 2 -0.241177 2.05398 -13.7365
304 2 1.61902 1.50719 -13.5054
305 2 0.777379 2.04029 -13.8334
301 2 0.460762 2.04834 -12.6596
324 2 -0.83998 -2.418 -11.4795
325 2 0.101155 -2.59474 -11.1191
326 2 1.07221 -2.56235 -11.0894
180 1 -2.49488 -0.397756 -12.5019
172 1 -1.98993 -0.15487 -11.2084
292 2 1.44194 -0.900093 -12.3732
289 2 2.64445 -0.175333 -10.908
173 1 -2.25158 0.800262 -11.3813
182 1 -0.944507 0.304775 -11.7791
282 2 -0.289005 1.57183 -10.8024
184 1 -0.143728 0.333212 -10.908
291 2 1.51703 0.136122 -12.2544
183 1 0.00601498 0.393705 -11.8604
290 2 2.06091 0.492311 -11.5759
174 1 -1.70711 1.53949 -11.746
302 2 1.2003 1.85294 -12.0674
284 2 0.97479 1.87157 -10.9863
168 1 -0.786868 -2.27784 -10.3184
166 1 -0.24662 -2.04329 -9.46221
167 1 0.0111451 -2.80671 -10.0069
328 2 0.934546 -1.87322 -9.81671
327 2 0.897139 -1.66164 -10.7671
171 1 -1.71508 -0.547367 -10.3271
169 1 -0.516169 -1.48869 -10.8224
170 1 -1.39212 -1.47596 -10.4077
164 1 -0.957216 -0.677642 -9.52913
186 1 0.116337 -0.96623 -9.59066
185 1 0.180182 -0.501093 -10.5244
288 2 2.16939 -0.00765657 -10.0846
276 2 -1.82151 1.55974 -10.2777
275 2 -2.64172 1.06934 -10.0962
283 2 0.529734 1.09768 -10.456
286 2 1.36849 1.42755 -9.9701
285 2 1.95652 1.63293 -10.7242
287 2 2.07408 0.866963 -9.64952
277 2 -1.76533 2.20362 -9.54325
281 2 -0.417959 2.25666 -10.1583
280 2 0.395639 2.17618 -9.53893
12 1 -1.98423 -1.5025 -8.35565
165 1 -1.11178 -1.59258 -9.25841
11 1 -1.28294 -2.21368 -8.27905
329 2 0.863482 -2.00808 -8.82441
330 2 0.0379059 -1.75824 -8.37147
30 1 1.60116 -1.92662 -8.05414
13 1 -1.43752 -0.707819 -8.16634
163 1 -0.412739 -0.805638 -8.68939
162 1 0.0958069 -0.443762 -7.86353
29 1 2.07608 -1.29464 -8.66518
28 1 2.17372 -0.354702 -8.70353
274 2 -2.31427 0.82624 -9.18984
273 2 -1.70231 0.422843 -8.46155
188 1 -0.200479 0.821042 -8.7666
272 2 -1.34846 1.29186 -8.19448
189 1 -0.208006 0.642333 -7.80716
187 1 0.212309 -0.0515499 -8.99742
161 1 0.896315 0.181039 -8.21877
160 1 1.56192 0.832758 -8.43989
278 2 -0.959363 2.16897 -8.96595
279 2 -0.261001 2.83855 -9.08071
10 1 -0.859096 -2.61116 -7.45182
9 1 -0.97889 -1.91811 -6.70447
331 2 0.294786 -2.17236 -7.43236
31 1 1.412 -2.17817 -7.09545
332 2 0.183967 -2.72374 -6.62409
16 1 -1.88621 -1.0275 -6.70475
15 1 -1.25454 -0.333675 -6.99229
14 1 -0.891619 -1.15916 -7.47475
25 1 1.25824 -0.998533 -6.77626
26 1 1.57887 -0.64079 -7.63622
24 1 0.540974 -1.64166 -6.55055
32 1 1.91912 -1.67465 -6.46425
27 1 2.41262 -0.187248 -7.79921
190 1 0.01519 1.48491 -7.38226
270 2 -1.04524 1.18921 -6.58925
159 1 1.21985 1.11408 -7.57778
158 1 0.674929 0.851869 -6.70523
271 2 -1.15218 1.80679 -7.35025
191 1 0.494468 2.26652 -7.00604
192 1 1.38923 2.29672 -6.71768
7 1 -0.800046 -2.48955 -5.09183
8 1 -1.46462 -2.2504 -5.85551
333 2 0.213523 -2.35062 -5.70929
334 2 0.707977 -1.65039 -5.21082
17 1 -2.52425 -1.24435 -5.9646
18 1 -1.67665 -1.1875 -5.4045
19 1 -1.30676 -0.263782 -5.25074
22 1 -0.208134 -0.151106 -5.73291
20 1 -0.557466 -0.341427 -4.55592
33 1 1.43945 -1.24977 -5.70367
23 1 0.476429 -0.840924 -5.94498
34 1 1.94763 -0.50782 -6.11856
35 1 2.37996 -0.685309 -5.26067
268 2 -1.91983 0.649632 -5.28816
269 2 -1.00119 0.846975 -5.68808
156 1 0.760162 0.648606 -5.29914
157 1 1.09725 0.151649 -6.0909
155 1 1.50079 0.971093 -4.75624
36 1 2.42483 0.290334 -5.33362
195 1 -0.593242 2.45085 -5.93501
196 1 -0.494459 2.56777 -4.90665
193 1 0.730845 2.10597 -6.0607
194 1 -0.157546 1.66365 -6.16773
197 1 0.471309 2.17435 -4.91518
6 1 -0.476908 -2.01283 -4.18456
5 1 -0.829497 -2.61645 -3.50794
4 1 -1.34489 -1.76809 -3.27682
335 2 1.20576 -2.44573 -4.91775
336 2 1.1456 -2.32783 -3.93634
337 2 0.969709 -2.58585 -3.01651
264 2 -1.95031 0.124294 -3.12348
3 1 -0.784233 -0.950027 -3.48039
21 1 0.30785 -0.365161 -4.96227
38 1 1.98483 -0.995533 -4.10573
37 1 2.20479 -0.159393 -4.45166
39 1 2.06672 -0.528226 -3.26749
267 2 -1.98239 1.28827 -4.51227
266 2 -1.3738 1.14333 -3.7756
265 2 -1.71041 0.239208 -4.05982
152 1 -0.174376 0.928621 -3.46752
153 1 0.552084 0.514756 -3.96567
154 1 1.43966 0.959057 -3.76051
198 1 0.620967 1.7987 -3.98647
53 1 -0.131927 -2.1491 -2.06948
339 2 1.41897 -2.12706 -2.18292
338 2 0.685051 -1.69338 -2.60755
263 2 -2.32224 -0.623151 -2.59588
52 1 -0.829198 -1.52658 -1.65158
50 1 -0.142719 0.0197052 -1.6951
2 1 -0.337171 -0.615693 -2.69589
41 1 1.83215 -0.0373127 -2.13352
262 2 -2.66528 0.231243 -2.36241
261 2 -1.97685 -0.0509117 -1.58598
150 1 -0.902882 1.09991 -2.4219
200 1 0.699677 0.98221 -2.90449
1 1 0.190497 0.173963 -2.60184
43 1 1.27088 1.41886 -1.81257
40 1 1.18608 -0.402843 -2.79267
42 1 2.09577 0.823119 -1.72633
149 1 -1.79999 1.6424 -2.47759
151 1 -0.0915923 1.612 -2.75606
147 1 -0.615152 2.24941 -1.72754
199 1 1.16211 1.88292 -3.16286
44 1 2.00087 2.0637 -1.89255
57 1 -1.34715 -1.83495 -0.230142
56 1 -0.915438 -2.61418 -0.404162
55 1 0.0857997 -2.23151 -0.453911
54 1 0.273187 -2.55259 -1.31716
341 2 1.29927 -1.96238 -0.589958
340 2 1.06417 -1.54308 -1.48005
58 1 -1.17842 -0.933985 -0.366981
51 1 -0.0722556 -0.914702 -1.28691
59 1 -0.303893 -0.465439 -0.138669
342 2 0.729722 -1.33035 -0.148931
141 1 1.72569 0.193351 -0.181898
260 2 -2.08157 0.82072 -1.2364
259 2 -1.5209 0.377607 -0.557569
47 1 0.18754 1.56205 -1.51959
48 1 0.251236 0.897303 -0.693309
46 1 0.963367 1.74428 -0.865026
49 1 0.681505 0.201185 -1.24982
142 1 1.15857 1.0103 -0.119899
148 1 -1.54871 1.98004 -1.57967
146 1 -0.542432 2.07825 -0.717619
45 1 1.12626 2.39835 -1.60803
144 1 1.13821 2.42522 -0.142182
145 1 0.153685 1.97564 -0.0133256
143 1 1.81755 1.70905 0.040703
211 2 -0.258469 -1.62885 1.60773
210 2 -0.814963 -1.49009 0.790037
343 2 0.977671 -1.85628 0.660936
258 2 -1.83375 -0.210007 0.195365
209 2 -1.80509 -1.69745 0.9211
257 2 -1.17465 -0.493656 0.892572
140 1 0.781117 -0.222273 -0.000495201
344 2 0.497092 -1.01867 0.844829
345 2 0.216135 -0.662311 1.81434
138 1 2.04258 0.0669141 1.49678
254 2 -2.30749 0.498375 1.04278
62 1 -1.54532 1.51884 0.665739
60 1 -0.53763 0.278025 0.448052
61 1 -0.685166 1.13288 0.950707
139 1 1.30885 0.0319762 0.805107
65 1 0.214637 1.30839 1.41935
137 1 2.29387 0.996928 1.3265
63 1 -0.869517 2.2671 0.693905
64 1 -0.0412965 2.25628 1.18718
208 2 -1.43789 -2.02472 1.7728
206 2 -0.882324 -1.65951 2.66325
213 2 1.24702 -2.53198 1.99935
212 2 0.55324 -1.85778 2.1527
214 2 1.64244 -1.73139 1.55897
255 2 -1.96932 -0.190114 1.66446
207 2 -1.77682 -1.28858 2.36979
348 2 -0.729099 -0.304425 2.94336
217 2 1.1364 -1.74325 3.13256
216 2 1.27916 -1.08441 2.34112
346 2 0.15337 0.368366 1.94508
215 2 2.11551 -1.53669 2.42777
252 2 -1.7893 1.54695 2.58773
253 2 -2.04657 0.855271 1.94239
256 2 -1.09004 0.289215 1.5546
347 2 -0.434288 0.597509 2.74568
66 1 0.642879 1.23719 2.39899
136 1 1.54001 0.877198 1.89397
135 1 1.76855 0.570548 2.85422
67 1 0.43675 2.19735 2.42194
68 1 0.807515 2.17443 3.33013
205 2 -0.257145 -2.22424 3.21133
204 2 -0.71431 -1.80998 4.0143
203 2 -1.64597 -1.70904 4.27864
202 2 -1.83281 -0.691833 4.19056
350 2 -0.751792 -0.61827 4.32625
218 2 1.22328 -1.18667 3.93678
227 2 0.260652 -1.41933 4.36197
349 2 -0.0922721 -0.321986 3.74081
219 2 2.21701 -1.0379 3.88661
220 2 1.68789 -0.209775 3.76669
251 2 -2.041 0.813156 3.1814
250 2 -1.47497 0.211469 3.77093
249 2 -1.3171 1.20267 3.87696
133 1 0.921407 0.525141 3.35323
132 1 0.122737 0.905537 3.80386
134 1 1.6097 1.21612 3.65001
221 2 2.41069 0.283569 4.19372
130 1 -0.826425 2.19181 3.95185
131 1 -0.218304 1.67509 3.34726
129 1 -0.605298 1.49929 4.64459
69 1 0.561608 1.78597 4.20396
228 2 -0.0190245 -2.04256 5.11631
229 2 0.977999 -2.19457 5.13544
230 2 1.38582 -1.70294 5.9468
201 2 -1.83023 0.112013 4.71794
399 2 -1.46387 -1.57972 5.6674
400 2 -1.36655 -0.634217 5.26892
351 2 -0.575991 -1.18379 5.07832
226 2 0.822388 -0.979319 5.04606
352 2 -0.152231 -1.37057 5.99199
223 2 2.03809 -0.145436 5.35183
231 2 2.25938 -1.1552 6.05344
246 2 -2.14669 1.08178 5.73799
224 2 1.15961 0.289133 5.57634
225 2 0.371322 -0.0372491 5.05657
222 2 2.09206 0.779383 4.97213
247 2 -1.5445 1.84566 5.52465
248 2 -1.70728 1.18038 4.77996
128 1 -0.585726 1.55299 5.65417
70 1 1.17736 2.19185 4.94864
71 1 1.02013 2.1804 5.88877
398 2 -1.5082 -2.08915 6.52355
396 2 -0.710079 -2.49479 7.85892
397 2 -0.756111 -2.63991 6.83897
237 2 0.446302 -2.21686 7.16467
355 2 -1.37494 -0.788955 7.42166
354 2 -0.62341 -1.2659 6.8881
353 2 0.108748 -0.649005 6.65887
236 2 0.86145 -1.23557 7.15486
232 2 2.42244 -0.323021 6.58973
234 2 1.6161 -0.395116 7.4271
235 2 1.87665 -1.37825 7.48265
358 2 -2.75014 0.250792 7.4512
245 2 -1.78369 1.33125 6.60772
244 2 -1.33297 1.39363 7.44282
127 1 -0.640337 1.0844 6.45039
73 1 1.13895 0.833211 7.20788
233 2 1.51763 0.138586 6.59867
75 1 1.84938 1.30629 8.20587
243 2 -0.992261 2.30129 7.84104
72 1 1.24188 1.6135 6.62465
126 1 0.162968 1.42714 6.83374
125 1 0.0381876 2.27755 7.35347
395 2 -1.14441 -2.5198 8.76674
238 2 0.100301 -1.59898 7.886
367 2 0.140294 -2.04126 9.20175
357 2 -2.71427 -0.764008 7.70232
356 2 -1.97842 -1.42701 7.86992
239 2 -0.369502 -0.83644 8.25321
81 1 0.914212 -1.08212 9.10481
78 1 2.78153 -0.740847 8.78856
80 1 1.62474 -1.55514 9.57606
359 2 -1.85805 0.385571 7.87248
360 2 -2.06475 0.191573 8.79818
241 2 -0.832615 0.556301 8.54903
240 2 -0.0394784 0.123643 8.10913
242 2 -0.72108 1.49875 8.43066
74 1 1.10368 1.72208 7.80316
123 1 0.738669 1.50475 8.79901
76 1 2.44244 0.488455 8.17112
77 1 2.48733 0.167521 9.09021
121 1 -0.114549 2.58233 9.28073
124 1 0.443044 2.27564 8.24747
122 1 0.763487 2.14825 9.55291
394 2 -1.54141 -1.91282 9.4249
393 2 -0.97227 -2.03521 10.2028
392 2 -0.273741 -2.1673 10.9067
368 2 0.391383 -2.3285 10.0721
369 2 1.1501 -1.93258 10.569
365 2 -0.25207 -0.472545 9.34856
366 2 -0.215906 -1.35362 9.80709
114 1 -0.166675 0.194 10.5381
83 1 1.14551 -0.217543 10.9895
82 1 1.08924 -0.732568 10.0699
79 1 2.34686 -0.946808 9.68204
362 2 -2.37405 0.0990178 10.5814
361 2 -2.1913 0.516774 9.69998
364 2 -0.747906 0.396209 9.56378
363 2 -1.40834 0.046522 10.3091
120 1 -0.340192 1.64493 9.47557
116 1 -1.69899 1.06277 10.894
86 1 0.856436 0.935817 10.8427
85 1 1.89613 0.925241 10.8298
119 1 -0.464211 1.92572 10.4205
118 1 -1.33026 2.47159 10.2285
117 1 -1.55823 1.48583 10.0357
391 2 -0.202885 -1.63085 11.7378
390 2 -1.14468 -1.73652 11.987
371 2 1.7838 -1.77324 12.1957
370 2 1.65261 -1.4483 11.2459
389 2 -1.78082 -1.01377 12.3219
113 1 0.193305 -0.613688 10.9673
112 1 0.766858 -0.734107 11.7884
111 1 1.62432 -0.709636 12.2016
115 1 -0.628579 1.05263 10.9954
89 1 0.126501 0.935454 12.0349
84 1 1.53429 0.497254 11.6282
110 1 2.34455 -0.0783902 12.1732
88 1 0.393675 1.74356 11.5652
87 1 0.901078 1.97446 10.6823
373 2 0.134651 -2.25903 12.6548
372 2 0.875566 -1.60251 12.519
387 2 -2.14044 -1.78703 13.5929
386 2 -2.29991 -0.77625 13.5832
388 2 -1.32966 -1.44382 13.1075
374 2 -0.366727 -1.45017 12.8998
91 1 0.527775 0.0267201 12.8533
375 2 0.360523 -0.91355 13.2479
379 2 1.96505 -0.711128 13.8505
96 1 -2.05305 0.833094 13.9349
94 1 -1.3246 0.213291 12.4625
95 1 -1.87987 0.0849424 13.3019
93 1 -0.878197 0.756765 13.2031
92 1 -0.438131 -0.117731 13.1593
100 1 -0.0293269 1.25845 13.9325
90 1 0.981358 0.926575 12.5117
108 1 2.34277 1.31011 13.7175
109 1 2.48722 0.683448 12.8711
107 1 2.90311 0.416533 13.8821
383 2 -0.654738 -1.92265 14.7931
382 2 0.350051 -2.00578 14.7919
381 2 1.32604 -1.6619 14.7884
380 2 1.7716 -1.68477 13.8777
385 2 -1.7193 -0.56695 14.4057
384 2 -0.983654 -1.19626 14.2359
376 2 0.305185 -0.58527 14.1505
378 2 1.29638 -0.325445 14.5171
98 1 -1.30685 1.16535 14.9141
99 1 -0.421707 1.59185 14.7839
377 2 0.622424 0.397187 14.382
104 1 0.96017 1.54194 14.8514
105 1 1.74408 0.998518 14.8034
106 1 2.47119 0.231488 14.8137
97 1 -2.08331 1.59289 14.6007
101 1 -0.387041 2.13974 13.6858
103 1 1.03028 2.52546 14.9768
102 1 0.344247 2.31735 14.2558
ITEM: TIMESTEP
200
ITEM: NUMBER OF ATOMS
400
ITEM: BOX BOUNDS ff ff ff
-5.0000000000000000e+01 5.0000000000000000e+01
-5.0000000000000000e+01 5.0000000000000000e+01
-5.0000000000000000e+01 5.0000000000000000e+01
ITEM: ATOMS id type x y z
316 2 -1.12874 -2.10686 -14.6063
317 2 -1.68876 -2.09769 -15.3983
318 2 -1.94985 -1.20102 -14.9781
319 2 -2.23027 -0.420956 -14.3928
315 2 -0.734561 -1.20997 -14.8662
314 2 -0.192854 -1.64586 -14.1568
312 2 0.120125 -0.0924631 -14.8365
313 2 0.292417 -0.797886 -14.1716
295 2 1.38438 -0.687967 -14.3253
296 2 1.9591 -0.253158 -14.9866
310 2 -1.67983 0.446727 -15.1486
311 2 -0.780483 0.394173 -14.711
308 2 -0.964528 1.60303 -14.8387
307 2 -0.670866 2.4303 -14.3495
309 2 -1.7765 1.11468 -14.4222
321 2 -1.22614 -1.7667 -13.6378
323 2 -0.284752 -2.13653 -12.2419
320 2 -2.03967 -1.18206 -13.7531
322 2 -0.636431 -1.3905 -12.8845
293 2 0.609461 -0.498268 -13.1129
294 2 1.12349 -1.24989 -13.5247
298 2 1.58761 -0.238692 -13.3668
297 2 2.30268 -0.249546 -14.0613
179 1 -2.55953 0.149224 -13.4459
181 1 -1.28868 -0.176539 -12.35
178 1 -1.60045 0.234987 -13.628
175 1 -1.48072 1.7525 -12.5531
177 1 -0.685795 0.567499 -13.309
176 1 -1.28529 1.36279 -13.5068
299 2 0.983866 0.605823 -13.3283
300 2 0.198194 0.987808 -12.8497
303 2 2.09024 1.62283 -12.5116
306 2 -0.089879 1.91931 -13.7209
304 2 1.67753 1.38905 -13.3812
305 2 0.879526 2.02318 -13.7081
301 2 0.638118 1.87771 -12.7296
324 2 -0.874254 -2.45028 -11.5131
325 2 0.149779 -2.56872 -11.542
326 2 1.08378 -2.41806 -11.3933
180 1 -2.20299 -0.363566 -12.6661
172 1 -1.83934 -0.327829 -11.1425
292 2 1.34529 -0.717423 -12.4373
289 2 2.53586 -0.126236 -11.1342
173 1 -2.11023 0.407116 -11.7879
182 1 -0.989292 0.606612 -11.8058
282 2 -0.39936 1.41984 -10.5816
184 1 -0.363623 0.342264 -10.981
291 2 1.77704 0.240176 -12.2319
183 1 -0.0293585 0.472326 -11.867
290 2 2.78226 0.384928 -11.9612
174 1 -2.02267 1.38312 -11.7932
302 2 1.35384 2.21894 -12.1819
284 2 0.981992 1.72483 -10.9661
168 1 -0.911975 -2.35443 -10.4958
166 1 -0.526274 -2.18836 -9.42372
167 1 -0.301221 -2.94362 -10.0965
328 2 1.04675 -2.21734 -9.66431
327 2 1.25271 -1.8175 -10.6526
171 1 -1.84354 -0.540937 -10.0678
169 1 -0.637144 -1.5085 -10.8945
170 1 -1.55654 -1.33622 -10.5837
164 1 -1.03984 -0.380075 -9.12053
186 1 0.268291 -0.683519 -9.67646
185 1 0.330419 -0.265575 -10.5752
288 2 2.01066 0.376352 -10.4607
276 2 -1.71057 1.75788 -10.5221
275 2 -2.37291 1.11352 -10.1824
283 2 0.438857 0.92724 -10.6598
286 2 1.5577 1.78248 -9.68629
285 2 1.84673 1.496 -10.6333
287 2 1.89757 0.851019 -9.6207
277 2 -1.87997 2.22081 -9.6696
281 2 -0.216582 2.40109 -10.4232
280 2 0.153212 2.30718 -9.50615
12 1 -1.98382 -1.52097 -8.44812
165 1 -1.01578 -1.39479 -9.27621
11 1 -1.73275 -2.379 -8.02611
329 2 0.568759 -2.61705 -8.92294
330 2 0.0834138 -1.90672 -8.43871
30 1 1.41545 -1.78706 -8.12458
13 1 -1.71772 -0.673276 -7.99005
163 1 -0.496031 -0.702411 -8.34083
162 1 0.396794 -0.556638 -7.96964
29 1 1.63289 -1.0087 -8.71388
28 1 2.4599 -0.489171 -8.52473
274 2 -2.13341 1.17908 -9.17519
273 2 -1.8817 0.455707 -8.51481
188 1 -0.129114 1.04208 -9.16486
272 2 -1.3006 1.17193 -8.16561
189 1 -0.1156 1.3064 -8.15359
187 1 0.185486 0.135993 -9.17038
161 1 0.878333 0.349735 -7.94454
160 1 1.3825 1.10199 -8.32897
278 2 -1.15934 2.73406 -9.17806
279 2 -0.271727 3.18162 -9.20407
10 1 -1.02641 -2.64114 -7.4554
9 1 -1.43822 -2.03746 -6.7067
331 2 0.417762 -2.11358 -7.55072
31 1 1.74011 -2.18891 -7.23492
332 2 0.450907 -2.65149 -6.724
16 1 -1.78939 -1.03937 -6.77818
15 1 -1.21705 -0.25751 -7.0936
14 1 -1.06802 -1.17982 -7.47163
25 1 1.09585 -0.838482 -6.80787
26 1 1.81575 -0.580484 -7.46976
24 1 0.539474 -1.65395 -6.55009
32 1 1.85243 -1.53423 -6.45842
27 1 2.60379 0.00672391 -7.71739
190 1 0.130587 1.36582 -7.16471
270 2 -1.03417 1.66926 -6.43469
159 1 1.12366 1.57552 -7.53806
158 1 1.20433 1.37591 -6.58572
271 2 -1.12751 1.8015 -7.36966
191 1 0.639577 2.30955 -7.04038
192 1 1.52894 2.40419 -6.61442
7 1 -1.18061 -2.46525 -4.94726
8 1 -1.22588 -2.63481 -5.89576
333 2 0.330284 -2.55489 -5.72022
334 2 0.576475 -1.80108 -5.14283
17 1 -2.30598 -1.41746 -6.0143
18 1 -1.6234 -1.46456 -5.35471
19 1 -1.19191 -0.559993 -5.27557
22 1 -0.323057 -0.269454 -5.8075
20 1 -0.615734 -0.454507 -4.50209
33 1 1.50832 -1.02843 -5.65701
23 1 0.518222 -0.838488 -6.01337
34 1 2.13588 -0.542116 -6.31595
35 1 2.45454 -0.801103 -5.40585
268 2 -1.81228 0.673904 -5.35173
269 2 -0.887043 0.974624 -5.69482
156 1 0.810022 1.03705 -5.64937
157 1 1.09257 0.408954 -6.36294
155 1 1.43049 1.23695 -4.9207
36 1 2.1271 0.177596 -5.5174
195 1 -0.422342 2.57084 -5.77558
196 1 -0.835787 2.26342 -4.96984
193 1 1.05345 2.14477 -5.72319
194 1 0.172654 1.73539 -5.88652
197 1 0.149442 2.35829 -4.69496
6 1 -0.697585 -2.14013 -4.12298
5 1 -1.10204 -2.8245 -3.52525
4 1 -0.838765 -1.93974 -3.12374
335 2 1.31771 -2.46351 -4.75841
336 2 1.36686 -2.32861 -3.81217
337 2 0.970822 -2.87943 -3.06281
264 2 -2.20343 0.250019 -3.06308
3 1 -1.16629 -0.969361 -3.23026
21 1 0.265849 -0.463096 -4.94774
38 1 1.93616 -0.915873 -4.25774
37 1 2.40451 -0.142681 -4.56456
39 1 2.04443 -0.751431 -3.27575
267 2 -1.93978 1.30703 -4.6229
266 2 -1.12462 0.984471 -4.17959
265 2 -1.41177 0.281467 -3.6131
152 1 -0.130542 1.04585 -3.42788
153 1 0.692356 0.476558 -3.76472
154 1 1.63972 0.78377 -4.01268
198 1 0.89051 2.00374 -4.07908
53 1 -0.37977 -2.65998 -1.71444
339 2 1.66939 -1.62319 -2.42074
338 2 0.829895 -2.10115 -2.48754
263 2 -2.3822 -0.552802 -2.44803
52 1 -0.477698 -1.67441 -1.61329
50 1 -0.0330153 0.00713592 -1.7476
2 1 -0.279852 -0.654329 -2.84052
41 1 1.90661 -0.0251017 -2.10303
262 2 -2.87802 0.06948 -1.91561
261 2 -1.98464 0.304726 -1.58098
150 1 -0.862313 1.14803 -1.84161
200 1 0.613435 1.12235 -2.76198
1 1 0.163167 0.23386 -2.71437
43 1 1.15095 1.32285 -1.87727
40 1 1.32324 -0.205635 -2.92685
42 1 2.08939 0.950534 -1.87502
149 1 -1.84212 1.18721 -2.06006
151 1 -0.234609 1.52522 -2.54155
147 1 -0.859575 2.63143 -1.27238
199 1 1.34222 1.7713 -3.1426
44 1 1.76901 1.97047 -2.29657
57 1 -1.27001 -1.80006 -0.320645
56 1 -0.918214 -2.65992 -0.0605221
55 1 -0.195285 -2.02831 -0.27366
54 1 0.300145 -2.47168 -1.03201
341 2 1.27708 -1.45469 -0.716844
340 2 1.07115 -1.45967 -1.67871
58 1 -1.28667 -0.792216 -0.664635
51 1 -0.140582 -0.8686 -1.23988
59 1 -0.42119 -0.478566 -0.360097
342 2 0.559565 -1.16163 -0.0449091
141 1 1.66634 -0.0527841 -0.170787
260 2 -2.44828 0.793234 -0.80059
259 2 -1.69019 0.48018 -0.206144
47 1 0.152218 1.70416 -1.23047
48 1 -0.254558 0.811825 -0.933467
46 1 1.07595 1.72036 -0.869281
49 1 0.63532 0.366327 -1.09606
142 1 1.40774 0.864654 0.182109
148 1 -1.56299 1.94526 -1.44186
146 1 -0.770115 2.0073 -0.465845
45 1 1.4616 2.38747 -1.44743
144 1 1.03721 2.33225 0.0175631
145 1 0.1469 1.7512 -0.201067
143 1 1.78323 1.64804 -0.266262
211 2 -0.124797 -2.00026 1.70349
210 2 -0.546801 -1.89836 0.714128
343 2 0.848581 -1.4613 0.85269
258 2 -2.02018 -0.274047 0.286587
209 2 -1.57993 -1.65106 0.792538
257 2 -1.11079 -0.330593 0.696736
140 1 0.681593 -0.114522 -0.0320354
344 2 0.0606997 -0.860843 0.866731
345 2 0.469857 -0.762938 1.78413
138 1 1.73274 0.0585868 1.5396
254 2 -2.41038 0.710628 1.38937
62 1 -1.72984 1.67957 0.503106
60 1 -0.56902 0.314504 0.149209
61 1 -1.11366 0.959672 0.726371
139 1 1.08749 0.183746 0.800512
65 1 0.117796 1.49314 1.72322
137 1 2.42918 0.877697 1.41663
63 1 -0.85719 2.04985 0.615826
64 1 0.0177149 2.2608 1.18241
208 2 -1.38088 -1.99384 1.70438
206 2 -1.01555 -1.58132 2.89167
213 2 1.16992 -2.30433 2.024
212 2 0.460917 -1.71942 2.41577
214 2 1.52012 -1.42348 1.67142
255 2 -1.85571 -0.0651298 1.67599
207 2 -1.26656 -1.0691 2.01897
348 2 -0.465066 -0.509044 3.11013
217 2 1.09752 -1.50196 3.24542
216 2 1.24422 -0.834846 2.48886
346 2 -0.0299749 0.0832182 2.07353
215 2 1.94141 -1.50416 2.58625
252 2 -2.09712 1.41478 2.83747
253 2 -1.75367 0.836526 2.10025
256 2 -0.937702 0.217625 1.53374
347 2 -0.45981 0.443096 2.92556
66 1 0.358581 1.24936 2.65734
136 1 1.79232 1.15261 2.15849
135 1 1.73426 0.355296 2.70384
67 1 0.296856 2.20808 2.47338
68 1 0.969919 2.29987 3.21033
205 2 -0.201741 -2.05494 3.22411
204 2 -0.845627 -1.6693 3.91939
203 2 -1.8602 -1.62932 4.07815
202 2 -2.31373 -0.688965 3.99723
350 2 -0.752821 -0.30521 4.53903
218 2 1.47554 -1.38483 4.12708
227 2 0.31819 -1.7743 4.34217
349 2 -0.0429403 -0.00176437 3.90792
219 2 2.24707 -1.07239 3.60654
220 2 1.84942 -0.205847 3.58639
251 2 -2.19434 0.483866 3.19568
250 2 -1.419 0.0632768 3.69636
249 2 -1.01771 0.927113 3.9854
133 1 0.869159 0.597388 3.40312
132 1 0.0417335 1.0817 3.70314
134 1 1.68249 1.14297 3.37478
221 2 2.3525 0.313087 4.29203
130 1 -0.430739 2.48901 4.07097
131 1 -0.320105 1.89857 3.25708
129 1 -0.481613 1.86446 4.92056
69 1 0.640103 2.46429 4.12881
228 2 0.0512643 -2.09872 5.23423
229 2 0.974281 -2.49034 5.39031
230 2 1.13451 -1.8156 6.05862
201 2 -1.8119 -0.0634457 4.5847
399 2 -1.34784 -1.70078 5.75208
400 2 -1.42869 -0.811811 5.23941
351 2 -0.486446 -1.00158 5.2044
226 2 0.638334 -0.978034 4.8285
352 2 -0.290159 -1.33363 6.09919
223 2 1.79077 -0.098028 5.14398
231 2 1.93714 -1.28097 6.12772
246 2 -2.01596 1.03786 5.84608
224 2 1.08384 0.454124 5.59105
225 2 0.467836 0.0749615 4.98026
222 2 2.04947 0.837423 5.04105
247 2 -1.89999 1.87768 5.32244
248 2 -1.30458 1.17562 4.90223
128 1 -0.449084 1.28594 5.76646
70 1 0.894164 2.06573 5.02128
71 1 1.0882 1.66375 5.90865
398 2 -1.23051 -2.05008 6.69966
396 2 -1.12642 -2.88862 7.98118
397 2 -0.715447 -2.80548 7.11101
237 2 0.593456 -2.19779 7.2794
355 2 -1.44985 -0.949568 7.60435
354 2 -0.593697 -0.890354 7.15506
353 2 -0.192419 -0.368957 6.41739
236 2 0.879891 -1.29611 7.12202
232 2 2.31905 -0.359061 6.27153
234 2 1.423 -0.45664 7.59884
235 2 1.86545 -1.27498 7.29176
358 2 -2.46922 0.214459 7.4021
245 2 -1.77202 1.5606 6.66484
244 2 -1.37451 1.30526 7.49963
127 1 -0.675246 1.35789 6.75289
73 1 1.00752 0.784815 7.41913
233 2 1.78178 0.194464 6.95206
75 1 2.03942 1.54778 8.15963
243 2 -1.20186 2.13966 7.93589
72 1 1.56855 1.42906 6.7728
126 1 0.272903 1.49572 7.00953
125 1 0.607121 2.34285 7.30683
395 2 -1.27018 -2.54534 8.90381
238 2 0.107307 -1.64746 7.87814
367 2 -0.0592438 -2.28034 9.12622
357 2 -2.5785 -0.730523 7.66976
356 2 -2.06765 -1.41621 8.21065
239 2 0.216929 -0.685518 8.20243
81 1 1.03254 -0.82076 9.05909
78 1 2.60905 -0.800148 8.90586
80 1 1.71072 -1.59691 9.19021
359 2 -1.78439 0.366164 8.09834
360 2 -1.73356 -0.074852 8.98831
241 2 -0.61597 0.709533 8.53009
240 2 0.245212 0.317288 8.30263
242 2 -0.979932 1.57044 8.71901
74 1 1.05747 1.67483 7.92833
123 1 0.605482 1.629 8.83238
76 1 2.35755 0.625043 8.20242
77 1 2.97013 0.0930193 8.94025
121 1 -0.127614 2.588 9.58711
124 1 0.504402 2.52739 8.30635
122 1 0.788311 2.16533 9.60809
394 2 -1.45522 -1.73221 9.39065
393 2 -1.13137 -2.2114 10.234
392 2 -0.385226 -1.89406 10.7825
368 2 0.288876 -2.36626 10.0423
369 2 1.17259 -1.95802 10.2734
365 2 -0.443211 -0.38028 9.44644
366 2 -0.0699298 -1.32547 9.51105
114 1 -0.302763 -0.0379956 10.9907
83 1 1.14386 -0.203751 10.9974
82 1 0.930822 -0.527571 10.0548
79 1 2.2945 -1.11444 9.81585
362 2 -2.1557 -0.00671361 10.3534
361 2 -2.13988 0.680909 9.5117
364 2 -0.935849 0.438068 9.49541
363 2 -1.17251 -0.214752 10.2847
120 1 -0.150487 1.61784 9.49068
116 1 -1.81489 1.15061 10.9562
86 1 0.948684 0.943513 10.782
85 1 1.93337 0.810527 10.6238
119 1 -0.718393 1.89438 10.245
118 1 -1.37888 2.58517 10.1436
117 1 -1.90505 1.78692 10.1244
391 2 -0.605309 -1.96333 11.7254
390 2 -1.35231 -1.28496 11.5228
371 2 1.84671 -1.94024 11.8478
370 2 1.60757 -1.3728 11.0219
389 2 -1.73323 -0.899803 12.3676
113 1 0.0694549 -0.968401 11.1169
112 1 0.782143 -1.04238 11.8333
111 1 1.57337 -0.53742 12.2304
115 1 -0.824669 0.769012 10.8584
89 1 0.1298 0.989188 12.1539
84 1 1.57561 0.560326 11.4817
110 1 2.3378 0.149628 12.0743
88 1 0.282814 1.91092 11.6519
87 1 1.14745 1.80163 11.1532
373 2 -0.042504 -2.29967 12.498
372 2 0.958944 -2.08195 12.3748
387 2 -1.97869 -1.67143 13.7402
386 2 -2.65198 -1.03446 14.0398
388 2 -1.34428 -1.66712 12.9427
374 2 -0.366211 -1.39316 12.788
91 1 0.355004 0.471207 13.1516
375 2 0.457153 -1.06741 13.4035
379 2 1.96764 -0.780343 13.7623
96 1 -2.33531 0.819943 13.9118
94 1 -1.60722 0.210089 12.4387
95 1 -2.12027 0.0185206 13.3504
93 1 -1.33549 0.865454 13.1336
92 1 -0.620163 0.273825 13.4485
100 1 -0.234914 1.36065 13.9478
90 1 1.02142 0.567372 12.3925
108 1 2.14617 1.27907 13.6449
109 1 2.17 0.949056 12.7326
107 1 2.82646 0.521763 13.8871
383 2 -0.489727 -1.78265 15.0532
382 2 0.497292 -1.92235 15.2029
381 2 1.2182 -1.44932 14.7612
380 2 1.78183 -1.72235 13.9512
385 2 -1.7313 -0.655275 14.3252
384 2 -0.807474 -0.94333 14.5001
376 2 0.528251 -0.705912 14.3169
378 2 1.55582 -0.245852 14.4208
98 1 -1.33212 1.12751 15.1132
99 1 -0.603585 1.76111 14.7985
377 2 0.77435 0.217528 14.0541
104 1 1.02659 1.50056 14.7216
105 1 1.62642 0.788665 14.8058
106 1 2.49765 0.300995 14.8111
97 1 -2.16694 1.40486 14.7193
101 1 -0.00685301 2.15141 13.4336
103 1 1.19223 2.48475 14.8373
102 1 0.306319 2.47077 14.35
ITEM: TIMESTEP
300
ITEM: NUMBER OF ATOMS
400
ITEM: BOX BOUNDS ff ff ff
-5.0000000000000000e+01 5.0000000000000000e+01
-5.0000000000000000e+01 5.0000000000000000e+01
-5.0000000000000000e+01 5.0000000000000000e+01
ITEM: ATOMS id type x y z
316 2 -1.06672 -2.23 -14.7334
317 2 -1.38948 -1.79508 -15.6096
318 2 -1.82025 -1.33989 -14.7953
319 2 -2.34902 -0.61885 -14.3868
315 2 -0.509094 -1.39104 -15.0499
314 2 -0.441846 -1.64826 -14.1073
312 2 -0.121845 -0.0764697 -14.6352
313 2 -0.193149 -0.694992 -13.8337
295 2 1.10766 -0.316084 -14.4916
296 2 1.73865 -0.262479 -15.2465
310 2 -1.71717 0.364142 -15.1528
311 2 -1.05708 0.190691 -14.4407
308 2 -1.05071 1.38351 -14.4674
307 2 -0.825189 2.32677 -14.3916
309 2 -1.91871 0.954795 -14.4357
321 2 -1.41862 -1.33446 -13.7322
323 2 -0.511222 -2.01301 -12.2482
320 2 -2.26272 -0.925678 -13.48
322 2 -0.587108 -1.41216 -13.1002
293 2 0.712027 -0.86672 -13.0937
294 2 0.94142 -1.23498 -14.0055
298 2 1.57524 -0.245474 -13.5577
297 2 2.13597 -0.237973 -14.3598
179 1 -2.62261 0.175033 -13.2741
181 1 -1.23691 -0.141617 -12.2288
178 1 -1.709 0.353425 -13.6427
175 1 -1.52537 1.88354 -12.6349
177 1 -0.879162 0.640645 -13.1433
176 1 -1.14041 1.51538 -13.5207
299 2 1.15355 0.635013 -13.3332
300 2 0.421522 0.866642 -12.6888
303 2 2.07098 1.64775 -12.3561
306 2 -0.0221821 1.9009 -13.9756
304 2 1.6589 1.6537 -13.299
305 2 0.955175 2.05376 -13.9551
301 2 0.539822 1.81212 -12.3271
324 2 -0.63589 -2.66799 -11.5178
325 2 0.239989 -2.60226 -11.1317
326 2 1.2098 -2.51311 -11.371
180 1 -2.17611 -0.241824 -12.5435
172 1 -2.09704 0.183068 -10.6946
292 2 1.21469 -0.54206 -12.3074
289 2 2.33303 -0.215917 -11.1997
173 1 -2.11323 0.443536 -11.6763
182 1 -1.0031 0.736472 -11.8413
282 2 -0.296183 1.51951 -10.7944
184 1 -0.534867 0.459721 -10.8797
291 2 1.84791 0.159763 -12.3303
183 1 -0.0275062 0.403304 -11.7204
290 2 2.70019 0.447944 -11.8507
174 1 -2.17847 1.43912 -12.0324
302 2 1.39803 2.21556 -11.9675
284 2 0.965522 1.90694 -10.929
168 1 -1.21005 -2.36808 -10.7964
166 1 -0.514032 -2.24643 -9.41129
167 1 -0.404261 -2.73868 -10.2537
328 2 0.99371 -2.29989 -9.77835
327 2 1.23199 -1.80669 -10.6049
171 1 -1.8436 -0.623764 -10.1363
169 1 -0.657924 -1.56226 -10.5297
170 1 -1.58509 -1.37555 -10.8057
164 1 -1.29197 -0.618929 -9.13783
186 1 -0.499177 -0.107631 -9.91368
185 1 0.114081 -0.249926 -10.7607
288 2 2.1115 0.57397 -10.6849
276 2 -1.96888 1.88539 -10.6166
275 2 -2.60661 1.38428 -9.9922
283 2 0.559314 1.25192 -10.3571
286 2 1.4638 1.56813 -9.84711
285 2 1.87047 1.52639 -10.7441
287 2 1.67914 0.539661 -9.81379
277 2 -1.8126 2.28966 -9.7378
281 2 -0.461462 2.49726 -10.7399
280 2 -0.24203 2.46639 -9.78891
12 1 -1.85355 -1.65949 -8.31852
165 1 -1.04259 -1.41761 -9.6491
11 1 -1.91221 -2.71082 -8.06216
329 2 0.442614 -2.73408 -9.10914
330 2 0.0327294 -2.15933 -8.3762
30 1 1.4026 -1.77463 -8.31522
13 1 -1.51231 -0.760755 -8.06094
163 1 -0.376489 -0.559703 -8.65411
162 1 0.334749 -0.740857 -7.92878
29 1 2.01648 -1.2115 -8.81253
28 1 2.75932 -0.60172 -8.53852
274 2 -1.71117 0.9554 -9.59205
273 2 -1.79744 0.659842 -8.61926
188 1 0.0973238 1.18475 -8.96961
272 2 -1.32113 1.37773 -8.18621
189 1 -0.286159 1.53316 -8.10378
187 1 0.182494 0.242309 -9.30786
161 1 1.02027 -0.143625 -8.25149
160 1 1.48669 0.706209 -8.33751
278 2 -1.02907 2.64614 -9.17773
279 2 -0.283477 3.29779 -9.30412
10 1 -1.23042 -2.83558 -7.34873
9 1 -1.73676 -2.36309 -6.62597
331 2 0.476223 -2.34415 -7.53773
31 1 1.56848 -1.75837 -7.28961
332 2 0.282952 -2.67352 -6.60063
16 1 -1.80016 -0.740554 -6.97657
15 1 -1.03107 -0.252997 -7.24168
14 1 -0.995017 -1.18087 -7.31651
25 1 1.03475 -0.839066 -7.0125
26 1 1.70845 -0.281415 -7.42441
24 1 0.717817 -1.64725 -6.4852
32 1 1.74532 -1.41879 -6.43683
27 1 2.51996 0.0285638 -7.85415
190 1 0.0179821 1.41287 -7.16534
270 2 -1.19992 1.42941 -6.48118
159 1 1.10635 1.25878 -7.58605
158 1 0.910173 1.20138 -6.61093
271 2 -1.74402 1.66512 -7.30661
191 1 0.677182 2.14051 -7.19049
192 1 1.35671 2.62368 -6.6679
7 1 -0.925755 -2.49191 -4.92256
8 1 -1.16839 -2.67131 -5.84803
333 2 0.168891 -2.4798 -5.65171
334 2 0.738507 -1.92885 -5.05044
17 1 -2.20105 -1.24488 -6.16066
18 1 -1.54474 -1.46094 -5.40973
19 1 -1.44753 -0.523983 -5.05214
22 1 -0.396624 -0.30219 -5.79992
20 1 -0.650572 -0.776362 -4.52178
33 1 1.47068 -0.701475 -5.74596
23 1 0.191428 -1.06067 -5.94105
34 1 2.22546 -0.511774 -6.35973
35 1 2.72936 -0.91089 -5.60564
268 2 -1.66044 0.748395 -5.39117
269 2 -0.816308 1.21716 -5.59973
156 1 0.843322 0.508708 -5.37178
157 1 1.0343 0.286568 -6.30754
155 1 1.08816 1.39281 -4.92043
36 1 2.6752 0.0623401 -5.42516
195 1 -0.622451 2.53477 -5.76699
196 1 -1.07193 2.18256 -4.89822
193 1 1.12672 2.11977 -5.81082
194 1 0.130119 1.85752 -5.84611
197 1 -0.0860581 2.10692 -4.71297
6 1 -1.05123 -2.07249 -4.02186
5 1 -0.862043 -2.61341 -3.19231
4 1 -0.493279 -1.75293 -2.84398
335 2 0.963789 -2.79027 -4.65037
336 2 1.13168 -2.03868 -4.03083
337 2 1.30827 -2.32241 -3.10015
264 2 -2.23501 0.129021 -3.0724
3 1 -1.13399 -0.966477 -2.74433
21 1 0.162729 -0.409629 -4.92645
38 1 2.04428 -1.19122 -4.20266
37 1 2.22588 -0.179429 -4.58856
39 1 2.04174 -0.527165 -3.43929
267 2 -2.20343 1.12493 -4.56741
266 2 -1.22847 0.866838 -4.23415
265 2 -1.48142 0.0692531 -3.70069
152 1 -0.0404182 1.35342 -3.52943
153 1 0.608614 0.625676 -3.93351
154 1 1.50488 0.722336 -4.33212
198 1 0.641763 1.91317 -4.09603
53 1 -0.563215 -2.60982 -1.49445
339 2 1.44759 -2.20871 -2.12502
338 2 0.608089 -1.79901 -2.56685
263 2 -2.02033 -0.470459 -2.30452
52 1 -0.358651 -1.63864 -1.68737
50 1 0.0363181 0.0939788 -1.77996
2 1 -0.291255 -0.503707 -2.74788
41 1 2.23333 -0.295056 -2.02472
262 2 -2.68846 0.224354 -1.94976
261 2 -1.73042 0.466066 -1.74989
150 1 -0.951759 1.618 -2.04346
200 1 0.705266 1.11509 -2.71488
1 1 0.493014 0.177552 -2.67041
43 1 1.2584 1.20605 -1.84765
40 1 1.53603 -0.0417243 -2.67113
42 1 2.038 0.656876 -1.98468
149 1 -1.92304 1.60506 -2.23744
151 1 -0.0801767 1.67385 -2.64767
147 1 -1.06109 2.56394 -1.29557
199 1 1.22046 1.37045 -3.49503
44 1 1.96493 1.76584 -2.29124
57 1 -1.69677 -1.79987 -0.511267
56 1 -1.07088 -2.56521 -0.257975
55 1 -0.387782 -1.91761 -0.505997
54 1 0.153171 -2.66177 -0.836818
341 2 1.00179 -1.89181 -0.705524
340 2 1.50755 -1.44311 -1.48354
58 1 -1.37495 -0.900396 -0.640253
51 1 0.268058 -0.856062 -1.51647
59 1 -0.480643 -0.501935 -0.331376
342 2 0.389 -1.25144 -0.226844
141 1 1.62036 -0.105643 -0.363635
260 2 -2.37905 0.721344 -1.04686
259 2 -1.61878 0.323876 -0.620256
47 1 0.435524 1.63298 -1.38884
48 1 -0.0155633 0.797499 -1.11229
46 1 1.24446 1.65614 -0.816178
49 1 0.846671 0.354182 -1.2158
142 1 1.87682 0.656436 0.262173
148 1 -1.74306 1.83749 -1.23923
146 1 -0.631104 1.95926 -0.597738
45 1 1.89492 2.25157 -1.39161
144 1 1.07461 2.33786 0.199942
145 1 0.260864 1.93501 -0.153158
143 1 1.8005 1.66145 0.156932
211 2 -0.244639 -1.99001 1.4278
210 2 -0.592753 -2.01024 0.528887
343 2 0.9445 -1.15236 0.565623
258 2 -2.00521 -0.107523 0.252799
209 2 -1.37866 -1.40271 0.765774
257 2 -1.13472 -0.217448 0.725472
140 1 0.726924 0.166189 0.0717229
344 2 0.103732 -0.612615 0.837807
345 2 0.598642 -0.661921 1.76615
138 1 1.73441 0.100883 1.61917
254 2 -2.58953 0.990167 1.59131
62 1 -1.56369 1.70283 0.635072
60 1 -0.339515 0.20143 0.318257
61 1 -0.964674 0.84973 0.728674
139 1 0.980972 0.314537 1.00882
65 1 0.468785 1.56787 1.75222
137 1 2.18171 0.894026 1.25101
63 1 -0.739114 2.15915 0.934973
64 1 -0.00861366 2.35679 1.51758
208 2 -1.54575 -1.96636 1.5699
206 2 -1.08471 -1.69965 2.97299
213 2 1.0761 -2.34721 2.19002
212 2 0.401164 -1.59915 2.07563
214 2 1.77341 -1.83724 1.58108
255 2 -1.96238 0.193016 1.52489
207 2 -1.43467 -1.13345 2.19107
348 2 -0.218164 -0.628486 3.05486
217 2 1.10497 -1.40164 3.18543
216 2 1.54914 -0.667211 2.53345
346 2 0.184418 0.191351 2.06523
215 2 2.16694 -1.39493 2.40797
252 2 -2.17439 1.13841 3.21607
253 2 -1.89956 0.878067 2.26976
256 2 -1.01406 0.00845112 1.75303
347 2 -0.576877 0.299363 2.80482
66 1 0.564434 1.02049 2.55861
136 1 1.46769 1.0423 2.00455
135 1 1.70186 0.337885 2.68427
67 1 0.365861 1.96487 2.75799
68 1 0.913216 2.29677 3.52248
205 2 -0.169292 -1.88716 3.38427
204 2 -0.915019 -1.93732 4.02755
203 2 -1.92051 -1.96023 3.79474
202 2 -1.96914 -0.929477 3.69581
350 2 -0.810098 -0.554062 4.48389
218 2 1.49026 -1.50985 4.09693
227 2 0.338792 -1.72464 4.22605
349 2 -0.212983 -0.1099 3.87963
219 2 2.21876 -1.06454 3.64235
220 2 1.61915 -0.295008 3.65803
251 2 -1.83751 0.149059 3.09719
250 2 -1.31655 0.161119 3.9377
249 2 -0.918363 1.02321 4.05543
133 1 0.799213 0.409301 3.42598
132 1 0.097493 1.03157 3.81118
134 1 1.53344 1.09235 3.34513
221 2 2.32121 0.266908 3.97394
130 1 -0.3315 2.4009 4.25051
131 1 -0.436851 1.75979 3.46406
129 1 -0.144879 2.15332 5.20551
69 1 0.627446 2.72643 4.37932
228 2 0.194495 -2.2148 5.14168
229 2 1.12412 -2.28151 5.35798
230 2 0.961843 -1.62138 6.02342
201 2 -1.97515 -0.396623 4.47889
399 2 -1.55216 -1.5606 5.88117
400 2 -1.4315 -0.837243 5.20269
351 2 -0.459181 -0.974423 5.37261
226 2 0.338459 -0.767577 4.3953
352 2 -0.503079 -1.27798 6.28415
223 2 1.78388 -0.0743748 5.28275
231 2 1.83523 -1.30766 6.06765
246 2 -2.04458 1.08405 5.73785
224 2 1.13094 0.463964 5.76378
225 2 0.401379 -0.0710296 5.10698
222 2 2.21593 0.711932 4.91173
247 2 -1.52077 1.80589 5.34258
248 2 -0.988767 0.979093 5.03476
128 1 -0.356182 1.49813 5.90636
70 1 1.13332 2.19343 5.02729
71 1 0.863069 1.62035 5.781
398 2 -1.21585 -2.06941 6.72538
396 2 -0.792556 -2.47641 7.89732
397 2 -0.380436 -2.68385 6.97012
237 2 0.544448 -2.07587 6.98919
355 2 -1.41963 -1.14056 7.85883
354 2 -0.802578 -0.546451 7.32848
353 2 -0.433716 -0.249933 6.46233
236 2 0.973476 -1.20983 7.09028
232 2 2.39983 -0.496509 6.38989
234 2 1.74247 -0.222356 7.80955
235 2 1.97756 -1.10523 7.30631
358 2 -2.62105 0.0124219 7.56133
245 2 -1.90863 1.70984 6.48776
244 2 -1.61448 1.27482 7.38594
127 1 -0.751131 1.1582 6.7631
73 1 0.950161 0.925054 7.00508
233 2 1.75357 0.150965 6.86271
75 1 2.08367 1.53737 8.21329
243 2 -1.29812 2.15519 7.82345
72 1 1.50995 1.6105 6.5618
126 1 0.0407302 1.77413 6.90961
125 1 0.599081 2.41787 7.48516
395 2 -1.03952 -2.3849 8.85025
238 2 0.137959 -1.47455 7.70294
367 2 0.080578 -2.094 9.09582
357 2 -2.95469 -0.906314 7.76488
356 2 -2.24181 -1.16319 8.41257
239 2 0.120887 -0.661171 8.20056
81 1 1.04595 -0.725796 9.12101
78 1 2.54384 -0.732775 9.04078
80 1 1.59913 -1.58323 9.18236
359 2 -1.86441 0.28988 8.18906
360 2 -1.72539 -0.239435 9.0427
241 2 -0.392837 0.895192 8.49948
240 2 0.112668 0.252008 7.94376
242 2 -0.838717 1.76065 8.64605
74 1 1.25888 1.15068 7.88967
123 1 0.406936 1.66456 8.59313
76 1 2.59898 0.667713 7.96272
77 1 3.02549 -0.0099783 8.45972
121 1 -0.0513332 2.44194 9.4372
124 1 0.659417 2.65267 8.43181
122 1 0.880108 2.2067 9.31277
394 2 -1.5871 -1.84966 9.42853
393 2 -1.0434 -1.79324 10.2064
392 2 -0.556954 -2.1214 10.9915
368 2 0.143216 -2.46757 10.0137
369 2 1.19766 -2.14019 10.0892
365 2 -0.390646 -0.520648 9.09017
366 2 -0.172468 -1.29272 9.65268
114 1 -0.214584 -0.000630722 10.9821
83 1 1.02202 -0.367348 11.0117
82 1 1.04274 -0.839186 10.1376
79 1 2.17863 -1.16582 9.92325
362 2 -1.99039 0.0768436 10.3001
361 2 -2.29774 0.482652 9.41817
364 2 -0.706283 0.358248 9.54632
363 2 -1.18445 -0.373001 9.97949
120 1 -0.264461 1.46008 9.60497
116 1 -1.57874 0.971138 10.5633
86 1 0.865188 1.0209 11.0288
85 1 1.65515 0.714732 10.6045
119 1 -0.799973 1.97074 10.256
118 1 -1.50924 2.64488 10.191
117 1 -1.95268 1.87203 10.4784
391 2 -1.09538 -2.17737 11.8173
390 2 -1.46577 -1.39607 11.2745
371 2 1.8973 -1.89638 11.8459
370 2 1.52239 -1.59133 10.9492
389 2 -1.72135 -1.03954 12.1454
113 1 0.264309 -0.862124 11.3097
112 1 0.688401 -0.766188 12.2149
111 1 1.63987 -0.550678 12.0032
115 1 -0.613223 0.931191 10.8066
89 1 0.1963 0.852072 11.836
84 1 1.60164 0.353725 11.5374
110 1 2.50459 0.00505661 11.8631
88 1 0.174864 1.79622 11.4639
87 1 1.1923 1.91905 11.2197
373 2 0.185295 -2.28642 12.5737
372 2 1.02205 -2.31857 11.993
387 2 -1.88955 -1.69188 13.8707
386 2 -2.43286 -1.03234 14.4164
388 2 -1.43167 -1.23251 13.1138
374 2 -0.249571 -1.4246 12.9749
91 1 0.247367 0.805563 13.0717
375 2 0.449255 -0.995796 13.536
379 2 2.35973 -0.815437 13.9392
96 1 -2.56739 1.0151 13.8352
94 1 -1.68811 0.290886 12.5977
95 1 -2.52655 0.440055 13.0791
93 1 -1.47407 0.861733 13.391
92 1 -0.518921 0.449189 13.5904
100 1 -0.722614 1.38327 13.9212
90 1 1.01744 0.729118 12.4452
108 1 2.4348 1.12602 13.3067
109 1 2.17839 0.689161 12.4881
107 1 2.56431 0.259317 13.7512
383 2 -0.423312 -1.7427 14.8291
382 2 0.470465 -1.99824 15.103
381 2 1.15459 -1.29389 14.9854
380 2 1.63379 -1.46878 14.1217
385 2 -1.64459 -0.415542 14.1135
384 2 -0.846875 -0.955559 14.3774
376 2 0.222089 -0.768141 14.429
378 2 1.59219 -0.281815 14.4003
98 1 -1.32406 1.49413 15.0939
99 1 -0.686247 2.05541 14.5824
377 2 0.684961 0.0544831 14.1511
104 1 0.702723 1.2259 14.646
105 1 1.65067 0.796124 14.7687
106 1 2.42612 0.135938 14.6956
97 1 -2.21106 1.29657 14.776
101 1 -0.0763437 2.02227 13.5066
103 1 1.14362 2.03557 14.888
102 1 0.795085 2.15772 13.9315
ITEM: TIMESTEP
400
ITEM: NUMBER OF ATOMS
400
ITEM: BOX BOUNDS ff ff ff
-5.0000000000000000e+01 5.0000000000000000e+01
-5.0000000000000000e+01 5.0000000000000000e+01
-5.0000000000000000e+01 5.0000000000000000e+01
ITEM: ATOMS id type x y z
316 2 -1.06577 -2.22956 -14.9409
317 2 -1.32329 -1.46457 -15.5125
318 2 -1.82109 -1.45348 -14.6871
319 2 -2.20522 -0.5381 -14.4337
315 2 -0.476648 -1.46912 -14.8486
314 2 -0.529922 -1.74615 -13.8941
312 2 0.0212823 -0.139467 -14.6249
313 2 -0.251109 -0.824156 -13.8871
295 2 1.25275 -0.688444 -14.7467
296 2 1.72864 0.155725 -15.092
310 2 -1.56862 0.329078 -15.2782
311 2 -0.896228 0.265882 -14.5006
308 2 -1.10829 1.85702 -14.6769
307 2 -0.631803 2.57007 -14.1425
309 2 -1.82932 1.12237 -14.7854
321 2 -1.34988 -1.09056 -13.7403
323 2 -0.553238 -1.98035 -12.6116
320 2 -2.32459 -1.04943 -13.6009
322 2 -0.745534 -1.07764 -12.9868
293 2 0.852219 -0.665244 -13.2834
294 2 1.08436 -1.31899 -14.011
298 2 1.73159 -0.0448921 -13.773
297 2 2.4115 0.365167 -14.3865
179 1 -2.46316 0.469512 -13.1614
181 1 -1.46461 0.0996578 -12.1163
178 1 -1.72028 0.168916 -13.6909
175 1 -1.58604 1.9187 -12.5216
177 1 -0.838482 0.55416 -13.4864
176 1 -1.45673 1.30205 -13.292
299 2 0.903259 0.43348 -13.4858
300 2 0.478694 0.751167 -12.6839
303 2 2.29201 1.95895 -12.5267
306 2 0.121869 1.97289 -13.8801
304 2 1.67704 1.41691 -13.1352
305 2 0.949161 1.97161 -13.3674
301 2 0.467157 1.73642 -12.4574
324 2 -0.458697 -2.58937 -11.7951
325 2 0.358361 -2.92456 -11.4627
326 2 1.35014 -2.64064 -11.4375
180 1 -2.12369 -0.394606 -12.7575
172 1 -2.04579 -0.195451 -11.0565
292 2 1.3693 -0.289668 -12.5609
289 2 2.33812 -0.281496 -11.3869
173 1 -2.41156 0.744026 -11.1321
182 1 -0.62241 0.593043 -12.2634
282 2 -0.209133 1.57687 -10.7626
184 1 -0.617612 0.360593 -11.1177
291 2 2.05059 0.382337 -12.535
183 1 0.145223 0.259955 -11.7907
290 2 2.25392 0.655206 -11.5952
174 1 -1.99314 1.27479 -11.8685
302 2 1.35664 2.17177 -12.2562
284 2 0.944081 2.35423 -10.9496
168 1 -1.26372 -2.41577 -10.7478
166 1 -0.765481 -2.3435 -9.54131
167 1 -0.549511 -2.96181 -10.2628
328 2 0.791278 -2.57677 -9.94185
327 2 1.02065 -2.0541 -10.7185
171 1 -1.57661 -0.489847 -10.1888
169 1 -0.495086 -1.74092 -10.6531
170 1 -1.29856 -1.11468 -10.8496
164 1 -1.47274 -0.850852 -9.07212
186 1 -0.338046 -0.380768 -9.93162
185 1 0.122236 -0.195666 -10.8115
288 2 2.27657 0.111173 -10.5244
276 2 -1.70614 1.76018 -10.4045
275 2 -2.56567 1.18032 -10.1757
283 2 0.686388 1.57282 -10.4086
286 2 2.0046 1.39994 -9.88082
285 2 1.65746 1.64563 -10.7896
287 2 1.58211 0.484597 -9.87685
277 2 -1.65742 2.79352 -10.2435
281 2 -0.163318 2.60405 -10.7092
280 2 -0.194779 2.21296 -9.83852
12 1 -1.80546 -1.76552 -8.4884
165 1 -1.18048 -1.48688 -9.75376
11 1 -2.0004 -2.673 -8.05772
329 2 0.324808 -2.68739 -9.0753
330 2 0.197003 -2.2173 -8.18307
30 1 1.27166 -1.76918 -8.24292
13 1 -1.59598 -1.16729 -7.65802
163 1 -0.663686 -0.675291 -8.53959
162 1 0.335004 -0.656711 -8.08825
29 1 2.0317 -1.0549 -8.46368
28 1 2.77921 -0.45187 -8.60983
274 2 -2.08014 1.12056 -9.32126
273 2 -1.29324 0.721887 -8.82662
188 1 0.517205 1.12876 -8.95052
272 2 -1.51751 1.42187 -8.05512
189 1 -0.180217 1.4878 -8.35962
187 1 -0.0382517 0.574081 -9.61188
161 1 1.03262 0.0102 -8.31526
160 1 1.50673 0.855085 -8.38593
278 2 -1.40526 2.70228 -9.25661
279 2 -0.531078 3.06366 -9.55471
10 1 -1.41329 -2.69103 -7.18563
9 1 -1.54836 -2.43309 -6.24679
331 2 0.741047 -2.64777 -7.43994
31 1 1.58084 -1.8528 -7.33821
332 2 0.21649 -2.90458 -6.6239
16 1 -1.83265 -0.386407 -6.826
15 1 -0.888356 -0.215906 -7.24962
14 1 -0.725832 -1.17786 -7.10208
25 1 1.1764 -0.637779 -6.98777
26 1 1.75875 -0.028107 -7.47034
24 1 0.623369 -1.43347 -6.7844
32 1 1.91977 -1.37618 -6.55082
27 1 2.45928 0.344288 -8.08196
190 1 -0.19905 1.34959 -7.36764
270 2 -1.35945 1.19224 -6.64311
159 1 1.14697 1.15971 -7.49859
158 1 1.08012 0.974151 -6.52122
271 2 -1.31996 1.96196 -7.22358
191 1 0.456646 2.00062 -6.97386
192 1 1.44899 2.12503 -6.7957
7 1 -1.36069 -2.71687 -5.1434
8 1 -0.904338 -3.13896 -5.9481
333 2 0.0845584 -2.66466 -5.7036
334 2 0.621243 -1.98593 -5.18825
17 1 -1.59758 -0.852571 -5.97738
18 1 -1.72259 -1.51496 -5.20699
19 1 -1.56311 -0.58543 -4.78257
22 1 -0.22814 -0.387995 -5.71916
20 1 -0.650555 -0.486917 -4.4203
33 1 1.42348 -0.988461 -5.71693
23 1 0.218835 -1.22726 -5.8748
34 1 1.98242 -0.168804 -6.07136
35 1 2.63485 -0.817186 -5.72223
268 2 -2.04216 0.592206 -5.46062
269 2 -1.05436 0.922239 -5.7174
156 1 0.964692 0.570948 -5.49046
157 1 0.612018 0.133848 -6.26018
155 1 1.2238 1.37392 -4.89102
36 1 2.95181 0.0547003 -5.42822
195 1 -0.48832 2.46505 -5.78528
196 1 -0.722438 1.91881 -4.98848
193 1 0.954943 2.11818 -5.91955
194 1 0.030363 1.65047 -6.00004
197 1 0.201216 2.3228 -4.83683
6 1 -1.32833 -2.33365 -4.22226
5 1 -0.788952 -2.57994 -3.3893
4 1 -0.511299 -1.8206 -2.86784
335 2 1.41436 -2.30911 -4.75018
336 2 0.925625 -2.41044 -3.92705
337 2 1.47323 -2.49344 -3.11992
264 2 -2.35123 -0.0661477 -3.07656
3 1 -1.10364 -1.09321 -2.58713
21 1 0.164551 -0.17865 -4.86876
38 1 2.65813 -0.906956 -3.99876
37 1 2.36692 -0.264149 -4.67369
39 1 2.58144 -0.196449 -3.29067
267 2 -1.74841 1.39393 -4.89295
266 2 -1.61006 0.822343 -4.05383
265 2 -1.52049 -0.0329461 -3.56135
152 1 -0.0314621 1.27761 -3.68496
153 1 0.55149 0.527874 -4.09684
154 1 1.54366 0.769042 -4.14755
198 1 0.948626 2.16723 -4.15869
53 1 -0.358176 -2.51532 -1.38557
339 2 1.01381 -1.98052 -1.77719
338 2 0.884354 -1.80716 -2.77529
263 2 -2.00251 -0.343446 -2.19361
52 1 -0.0529528 -1.57379 -1.34531
50 1 0.0165505 0.260405 -1.85666
2 1 -0.186925 -0.828242 -2.60362
41 1 2.19234 -0.277576 -2.04015
262 2 -2.8766 -0.0645485 -1.73309
261 2 -2.2286 0.686044 -1.9795
150 1 -0.775486 1.83685 -2.2619
200 1 0.487801 0.792543 -2.85089
1 1 0.611003 -0.187001 -2.51076
43 1 1.17726 1.14857 -2.00681
40 1 1.68799 -0.122168 -2.89017
42 1 2.06511 0.716327 -2.18123
149 1 -1.79381 1.89618 -2.05713
151 1 0.00772184 1.78531 -2.88143
147 1 -1.2736 2.59596 -1.23387
199 1 1.00579 1.52068 -3.32651
44 1 1.74982 1.73683 -2.54927
57 1 -1.55841 -1.94896 0.117556
56 1 -1.26714 -2.62835 -0.577333
55 1 -0.419185 -2.11004 -0.448375
54 1 -0.250755 -3.04376 -0.53722
341 2 1.09028 -1.72825 -0.782652
340 2 1.4028 -1.14781 -1.53438
58 1 -0.941717 -1.22052 -0.342434
51 1 0.265558 -0.674166 -1.59138
59 1 -0.404348 -0.40698 -0.417253
342 2 0.844719 -0.979087 -0.226735
141 1 1.64285 0.219332 -0.308999
260 2 -2.35862 0.589639 -1.01014
259 2 -1.69764 0.552895 -0.298268
47 1 0.490938 1.57157 -1.40055
48 1 -0.120264 0.889813 -0.978404
46 1 1.32589 1.64137 -0.764321
49 1 0.774795 0.526834 -1.25658
142 1 2.21192 0.775416 0.351518
148 1 -1.51134 1.64378 -1.15805
146 1 -0.500949 2.07466 -0.938842
45 1 1.48842 2.09591 -1.65558
144 1 0.998657 2.36213 0.287111
145 1 0.372503 2.06228 -0.484136
143 1 1.52635 1.50609 0.311983
211 2 -0.264309 -1.98042 1.50703
210 2 -0.580305 -1.99052 0.56462
343 2 0.537084 -1.19228 0.699872
258 2 -1.97115 0.0421926 0.519869
209 2 -1.2998 -1.35964 0.904122
257 2 -1.06089 -0.414021 0.725163
140 1 0.740456 0.388546 0.0263439
344 2 -0.114273 -0.631422 1.1473
345 2 0.715381 -0.437387 1.51523
138 1 1.79986 -0.184112 1.29947
254 2 -2.55796 0.881454 1.46132
62 1 -1.23486 1.91674 0.649521
60 1 -0.637792 0.452739 0.0699253
61 1 -1.41654 0.932294 0.574317
139 1 1.31285 0.526271 0.824267
65 1 0.48826 1.28469 1.68374
137 1 2.0522 0.735066 1.61909
63 1 -0.62736 2.40596 1.23276
64 1 0.319064 2.24309 1.34786
208 2 -1.56183 -1.88428 1.78125
206 2 -0.953877 -1.85755 2.68532
213 2 1.01883 -2.16277 1.81771
212 2 0.410722 -1.35751 1.90934
214 2 1.88458 -1.68097 1.57787
255 2 -1.82944 0.240059 1.78576
207 2 -1.2499 -1.05662 2.1761
348 2 0.02551 -0.595868 3.25772
217 2 1.0374 -1.1291 3.33737
216 2 1.25011 -0.511976 2.57012
346 2 0.0367586 0.273587 1.79551
215 2 1.7336 -1.37287 2.51585
252 2 -1.63139 1.0206 3.08983
253 2 -2.12892 1.46049 2.26955
256 2 -0.962987 -0.154854 1.68824
347 2 -0.432704 0.0157061 2.58571
66 1 0.56132 1.08005 2.68778
136 1 1.57006 1.39262 2.25098
135 1 1.56579 0.472161 2.66582
67 1 0.622557 2.05905 2.83444
68 1 0.883998 2.22838 3.82045
205 2 -0.159891 -1.68662 3.29185
204 2 -0.763985 -1.90292 4.05357
203 2 -1.58332 -2.1637 3.58159
202 2 -1.94998 -1.25006 3.87104
350 2 -0.539138 -0.742845 4.1988
218 2 1.5751 -1.52399 4.08416
227 2 0.279758 -1.90747 4.34407
349 2 0.150179 -0.0537095 4.06614
219 2 2.5032 -1.26822 3.95715
220 2 1.90814 -0.473311 3.51151
251 2 -2.06572 0.104729 3.04297
250 2 -1.45387 0.0833599 3.833
249 2 -0.759644 0.809919 4.11364
133 1 0.88559 0.548447 3.64396
132 1 0.131116 1.13952 3.73325
134 1 1.69669 1.13255 3.46363
221 2 2.21618 0.0625347 4.26516
130 1 -0.823228 2.52868 4.61038
131 1 -0.327489 2.00238 3.90024
129 1 -0.0538997 2.04572 5.04557
69 1 0.440547 2.91827 4.49638
228 2 0.283195 -2.63543 5.04011
229 2 1.08814 -2.09106 5.06261
230 2 0.801342 -1.55114 5.80018
201 2 -1.89023 -0.500155 4.61043
399 2 -1.55251 -1.1457 6.42109
400 2 -1.52194 -0.91602 5.40693
351 2 -0.530636 -0.914945 5.22768
226 2 0.445878 -0.982291 4.68561
352 2 -0.165184 -1.0807 6.13925
223 2 1.8244 -0.0896011 5.37448
231 2 1.81296 -1.41293 5.88995
246 2 -2.13462 1.23834 5.48301
224 2 1.13553 0.622791 5.37943
225 2 0.518917 -0.208047 5.25372
222 2 2.24948 0.750077 5.02228
247 2 -1.32984 1.8204 5.2815
248 2 -1.3381 0.908877 4.90426
128 1 -0.231565 1.52895 5.91435
70 1 0.959978 2.1979 4.98862
71 1 0.83811 1.93862 5.98044
398 2 -1.22172 -1.93569 6.94996
396 2 -0.868743 -2.55787 8.03278
397 2 -0.420512 -2.6403 7.09409
237 2 0.449126 -1.95201 7.11332
355 2 -1.71929 -0.636971 8.21909
354 2 -1.47084 -0.398492 7.27817
353 2 -0.735048 -0.531622 6.70548
236 2 0.896833 -1.14429 7.46268
232 2 2.2886 -0.535838 6.17845
234 2 1.85686 -0.22435 7.49135
235 2 1.81714 -1.08429 7.11131
358 2 -2.64198 0.0582239 7.55499
245 2 -2.27105 1.39848 6.47479
244 2 -1.66483 1.65665 7.20611
127 1 -0.817355 1.1327 6.7218
73 1 0.652441 0.73813 6.97016
233 2 1.46891 -0.171022 6.62032
75 1 2.00466 1.713 7.88166
243 2 -1.17579 1.94712 8.04648
72 1 1.36202 1.31452 6.49015
126 1 -0.202398 1.72114 7.1333
125 1 0.651193 2.06239 7.51395
395 2 -1.54206 -2.21299 8.65657
238 2 -0.248193 -1.74362 7.81849
367 2 -0.384612 -2.14343 9.31244
357 2 -2.6967 -0.947253 7.69686
356 2 -2.33482 -1.44926 8.43536
239 2 -0.212875 -0.811305 8.1014
81 1 1.26622 -0.659646 8.89515
78 1 2.71902 -0.396225 9.23736
80 1 1.59759 -1.53699 9.23572
359 2 -2.06021 0.376856 8.3931
360 2 -2.06011 -0.228955 9.1796
241 2 -0.777381 0.86619 8.06799
240 2 -0.0420335 0.179228 7.92414
242 2 -0.612072 1.59262 8.74353
74 1 1.12714 1.20869 7.72963
123 1 0.411372 1.6122 8.48583
76 1 2.61131 0.883951 7.86906
77 1 3.03985 0.13064 8.42548
121 1 -0.114578 2.48513 9.44289
124 1 0.584775 2.55898 8.38854
122 1 0.737815 1.88378 9.4096
394 2 -1.43032 -1.53245 9.39183
393 2 -1.17319 -1.75554 10.288
392 2 -0.642298 -2.29831 10.991
368 2 0.156094 -2.42941 10.111
369 2 0.911311 -2.03753 10.5636
365 2 -0.476973 -0.413699 9.18569
366 2 -0.116072 -1.24243 9.64466
114 1 -0.348503 0.00883291 11.2374
83 1 0.973196 0.0446017 10.4525
82 1 1.03408 -0.713885 9.871
79 1 2.51136 -1.34618 9.51947
362 2 -2.13364 -0.213975 10.5036
361 2 -2.16109 0.5593 9.84317
364 2 -1.04791 0.295832 9.53681
363 2 -1.21427 -0.406973 10.2229
120 1 -0.393017 1.61602 9.87063
116 1 -1.5932 1.15561 11.0191
86 1 0.89899 1.33277 11.0505
85 1 1.59946 0.856106 10.4733
119 1 -0.612502 2.204 10.6174
118 1 -1.45459 2.66404 10.5863
117 1 -1.70115 1.71661 10.2324
391 2 -0.848216 -2.30802 11.9812
390 2 -1.25973 -1.55583 11.4668
371 2 1.67794 -1.93523 11.7065
370 2 1.62626 -1.43938 10.775
389 2 -1.65667 -1.01845 12.224
113 1 0.000831294 -0.924968 11.289
112 1 0.701067 -1.2903 11.8833
111 1 1.52466 -0.766338 12.0022
115 1 -0.685879 0.814594 10.7607
89 1 0.177195 0.94321 11.9934
84 1 1.50839 0.28111 11.2967
110 1 2.3537 -0.197866 11.9499
88 1 0.41238 1.92686 11.8962
87 1 1.22191 2.2394 11.3467
373 2 0.0692701 -2.31191 12.5343
372 2 1.00457 -2.44342 12.1367
387 2 -2.04017 -1.64588 13.7946
386 2 -2.54965 -0.888276 14.1687
388 2 -1.38585 -1.36219 13.1112
374 2 0.225678 -1.50689 13.0917
91 1 0.137525 0.290624 13.0936
375 2 0.0525007 -1.45122 14.0625
379 2 2.27039 -0.877872 14.1893
96 1 -2.59946 0.638863 13.8958
94 1 -1.5878 0.256281 12.591
95 1 -2.47803 0.335092 12.9701
93 1 -1.08866 0.562953 13.3922
92 1 -0.257126 0.432601 13.9891
100 1 -0.551757 1.56892 14.1267
90 1 0.870906 0.756333 12.6641
108 1 2.4708 1.07973 13.3545
109 1 2.07665 0.636427 12.5879
107 1 2.37609 0.174597 13.6533
383 2 -0.426857 -1.72785 15.2821
382 2 0.498023 -1.84026 15.6293
381 2 1.10214 -1.53558 14.9134
380 2 1.43726 -1.40409 13.9446
385 2 -1.67799 -0.495467 14.4273
384 2 -1.05743 -1.12873 14.9198
376 2 0.260282 -0.665996 14.5817
378 2 1.47014 -0.519741 14.5837
98 1 -1.51927 1.49406 15.1012
99 1 -0.733544 2.14749 14.8912
377 2 0.795757 -0.00360913 13.9952
104 1 0.820358 1.11863 14.8271
105 1 1.65765 0.585916 15.0026
106 1 2.44344 0.00992905 14.6666
97 1 -2.41023 1.31006 14.6206
101 1 0.061015 1.80938 13.3256
103 1 1.05901 2.05164 15.007
102 1 0.757334 2.07188 14.084
ITEM: TIMESTEP
500
ITEM: NUMBER OF ATOMS
400
ITEM: BOX BOUNDS ff ff ff
-5.0000000000000000e+01 5.0000000000000000e+01
-5.0000000000000000e+01 5.0000000000000000e+01
-5.0000000000000000e+01 5.0000000000000000e+01
ITEM: ATOMS id type x y z
316 2 -1.04251 -2.1345 -14.9281
317 2 -1.44855 -1.60482 -15.7446
318 2 -1.55998 -0.801042 -15.1175
319 2 -2.27258 -0.459702 -14.3872
315 2 -0.223204 -1.63004 -14.728
314 2 -0.24613 -1.65272 -13.7722
312 2 0.136205 -0.0336941 -14.5052
313 2 -0.331291 -0.646157 -13.867
295 2 1.10191 -0.388621 -14.8101
296 2 1.83907 0.213737 -15.0786
310 2 -1.52107 0.645494 -15.2742
311 2 -0.757254 0.399946 -14.6855
308 2 -1.01479 1.86606 -14.5451
307 2 -0.629719 2.58381 -13.9497
309 2 -1.77465 1.2158 -14.4923
321 2 -1.40947 -1.24291 -13.5897
323 2 -0.955689 -1.98187 -12.3757
320 2 -2.44112 -1.21712 -13.7218
322 2 -0.713418 -1.10622 -12.8398
293 2 1.27296 -0.930694 -13.2975
294 2 0.992476 -1.13213 -14.212
298 2 1.85443 -0.106031 -13.7303
297 2 2.21856 0.680711 -14.2432
179 1 -2.6036 0.643775 -12.9245
181 1 -1.54727 0.160314 -12.266
178 1 -1.9995 0.333133 -13.687
175 1 -1.86163 1.36904 -12.739
177 1 -1.1482 0.463083 -13.2239
176 1 -1.08723 1.42341 -13.3334
299 2 0.955815 0.34994 -13.5418
300 2 0.739186 0.843951 -12.6561
303 2 1.96545 1.98299 -12.5818
306 2 0.2143 2.0567 -13.8577
304 2 1.71073 1.68092 -13.5192
305 2 1.11619 2.42419 -13.5893
301 2 0.567299 1.82213 -12.6934
324 2 -0.559633 -2.42752 -11.5827
325 2 0.376922 -2.7666 -11.3846
326 2 1.21941 -2.2079 -11.3947
180 1 -2.2145 -0.25961 -12.8802
172 1 -2.05733 -0.372865 -11.0601
292 2 1.08279 -0.549914 -12.3239
289 2 2.24774 -0.251589 -11.1396
173 1 -2.38259 0.501788 -11.0252
182 1 -0.626924 0.519356 -12.1061
282 2 -0.325938 1.62342 -10.3246
184 1 -0.6257 0.0255853 -11.1952
291 2 1.88285 -0.00507625 -12.1815
183 1 0.302251 0.429836 -11.5924
290 2 2.29567 0.672345 -11.539
174 1 -2.17299 0.872014 -11.9559
302 2 1.17327 2.27763 -12.0427
284 2 1.00069 2.53825 -10.9022
168 1 -1.17075 -2.53415 -10.8445
166 1 -0.846611 -2.10262 -9.402
167 1 -0.908871 -2.92093 -9.96843
328 2 0.923886 -3.03416 -10.0803
327 2 0.824988 -2.11206 -10.4502
171 1 -1.48353 -0.381431 -10.254
169 1 -0.43952 -1.84427 -10.6494
170 1 -1.12121 -1.1437 -10.9072
164 1 -1.33955 -1.14479 -8.80702
186 1 -0.120193 -0.126303 -9.73671
185 1 0.171696 -0.129271 -10.718
288 2 2.12316 0.0189469 -10.1599
276 2 -1.83195 1.94882 -10.3734
275 2 -2.57717 1.31745 -10.245
283 2 0.682724 1.79564 -10.3109
286 2 1.61636 1.47768 -9.92161
285 2 1.78581 1.90089 -10.8413
287 2 1.86602 0.625588 -9.44412
277 2 -1.71823 2.93138 -10.0731
281 2 -0.72895 2.62617 -10.4076
280 2 -0.00589655 2.5644 -9.72257
12 1 -1.56638 -1.99394 -8.21101
165 1 -1.66373 -1.59116 -9.65977
11 1 -1.93918 -2.91364 -8.05882
329 2 0.490453 -2.70668 -9.25938
330 2 0.0579843 -2.30039 -8.50105
30 1 1.26045 -1.92154 -8.16922
13 1 -1.66842 -1.27552 -7.51736
163 1 -0.332173 -1.14637 -8.82907
162 1 0.348842 -0.887664 -8.12661
29 1 1.93573 -1.37953 -8.77105
28 1 2.49095 -0.513319 -8.77775
274 2 -2.18764 0.945841 -9.44394
273 2 -1.44782 0.634564 -8.86153
188 1 0.534875 1.10648 -9.21434
272 2 -1.3083 1.16507 -8.02489
189 1 0.0495113 1.33654 -8.33986
187 1 0.589303 0.494019 -10.025
161 1 0.669495 0.0133628 -8.55881
160 1 1.537 0.594065 -8.34062
278 2 -1.34416 2.97106 -9.1282
279 2 -0.568676 3.34909 -9.64307
10 1 -1.30778 -2.48572 -7.33834
9 1 -1.43415 -2.44889 -6.37052
331 2 -0.132542 -2.66663 -7.6333
31 1 1.56463 -1.9344 -7.23746
332 2 0.385931 -2.71241 -6.81898
16 1 -1.61491 -0.304839 -6.9108
15 1 -0.891001 -0.281162 -7.61275
14 1 -0.846806 -1.18262 -7.01115
25 1 1.39619 -0.724097 -6.93861
26 1 2.08681 -0.343425 -7.41313
24 1 0.63744 -1.33413 -6.8397
32 1 1.86915 -1.51405 -6.43768
27 1 2.67905 0.130596 -8.00586
190 1 -0.125757 1.58942 -7.36565
270 2 -1.52113 1.47946 -6.42395
159 1 1.0177 1.20965 -7.76875
158 1 0.604417 0.964945 -6.83547
271 2 -1.09636 1.69763 -7.22763
191 1 0.744028 2.02148 -7.17441
192 1 1.56655 1.6903 -6.66767
7 1 -0.947975 -2.53428 -4.94611
8 1 -0.991178 -3.0708 -5.77343
333 2 0.493061 -2.76951 -5.81133
334 2 0.694293 -2.03492 -5.14614
17 1 -1.83026 -0.803336 -6.08561
18 1 -1.26196 -1.28195 -5.43917
19 1 -1.52148 -0.508388 -4.9443
22 1 -0.428313 -0.508698 -5.77747
20 1 -0.814734 -0.043153 -4.47165
33 1 1.19605 -1.04171 -5.95413
23 1 0.105452 -1.26375 -6.01585
34 1 1.9179 -0.405945 -6.09961
35 1 2.79223 -0.871948 -6.29858
268 2 -1.87521 0.605273 -5.43835
269 2 -1.03423 1.08124 -5.67036
156 1 1.0024 0.749172 -5.48737
157 1 0.673314 0.1485 -6.21291
155 1 1.72686 1.28386 -5.1345
36 1 2.78948 -0.149428 -5.62041
195 1 -0.686979 2.60302 -5.5161
196 1 -0.701915 2.25445 -4.59939
193 1 0.981182 1.71687 -5.83559
194 1 0.0250001 1.91552 -5.68159
197 1 0.225715 2.48339 -4.41994
6 1 -1.49558 -2.39106 -4.11874
5 1 -0.724209 -2.63608 -3.47329
4 1 -0.474667 -1.93748 -2.75967
335 2 1.4084 -2.63062 -4.79616
336 2 0.965277 -2.36579 -3.94972
337 2 1.25347 -2.79994 -3.05701
264 2 -2.29376 -0.231532 -3.09391
3 1 -1.08141 -1.1853 -2.72319
21 1 0.0167662 -0.00306726 -5.0516
38 1 2.64138 -0.857859 -4.02052
37 1 2.31986 -0.253598 -4.75119
39 1 2.70546 -0.31913 -3.18759
267 2 -1.83141 1.435 -4.88902
266 2 -1.3428 0.762852 -4.32209
265 2 -1.46484 0.287783 -3.47323
152 1 -0.198616 1.11838 -3.60519
153 1 0.478552 0.458499 -3.88192
154 1 1.29182 0.605853 -4.47198
198 1 1.06227 2.09554 -4.03061
53 1 -0.737968 -2.49089 -1.3514
339 2 0.825412 -1.90494 -1.71732
338 2 0.781244 -1.97866 -2.68506
263 2 -1.95376 0.0254747 -2.15186
52 1 -0.148739 -1.65699 -1.22667
50 1 0.0755833 0.0241866 -1.97712
2 1 -0.158105 -0.863553 -2.48071
41 1 1.80076 -0.447648 -2.03879
262 2 -2.96303 -0.166978 -2.07196
261 2 -2.81877 0.745959 -1.77562
150 1 -0.832988 1.8133 -1.97103
200 1 0.478095 0.864988 -2.66633
1 1 0.337275 -0.127492 -2.94982
43 1 1.41134 1.02283 -1.88684
40 1 1.71661 -0.378026 -3.09688
42 1 2.01648 0.466881 -2.42465
149 1 -1.76977 1.47112 -2.25486
151 1 -0.237687 1.59076 -2.72038
147 1 -1.52116 2.52292 -0.903649
199 1 1.03267 1.55211 -3.15716
44 1 1.72051 1.76873 -2.51687
57 1 -1.6823 -1.99327 -0.177213
56 1 -1.27953 -2.90351 -0.248952
55 1 -0.502676 -2.3365 0.00590395
54 1 0.010724 -2.76497 -0.738594
341 2 1.11497 -1.83068 -0.579053
340 2 1.54528 -1.34891 -1.3711
58 1 -1.18128 -1.13885 -0.265169
51 1 0.253818 -0.795527 -1.51164
59 1 -0.740493 -0.194234 -0.593618
342 2 0.590183 -0.976959 -0.252881
141 1 1.83578 0.183465 0.0725511
260 2 -1.97814 0.692796 -1.26577
259 2 -1.54335 0.827431 -0.364046
47 1 0.618202 1.50682 -1.44334
48 1 -0.161666 0.847346 -1.3276
46 1 1.13332 1.99219 -0.802091
49 1 0.559983 0.178963 -1.12072
142 1 2.22364 1.0577 0.360655
148 1 -1.58736 1.59619 -1.27081
146 1 -0.629223 2.16962 -0.777474
45 1 1.79584 1.94965 -1.54449
144 1 1.00019 2.29391 0.130947
145 1 0.0719672 2.15272 -0.0287835
143 1 1.3009 1.31127 0.0830109
211 2 -0.059799 -2.18096 1.36641
210 2 -0.904207 -2.21849 0.925191
343 2 0.48609 -1.04393 0.725414
258 2 -1.97826 0.0965309 0.184261
209 2 -1.31844 -1.27719 0.986698
257 2 -1.30806 -0.138703 0.793563
140 1 0.804085 0.401452 0.138771
344 2 -0.26668 -0.730001 1.32477
345 2 0.788273 -0.337114 1.40295
138 1 1.7733 -0.11274 1.25293
254 2 -2.42776 0.964182 1.46373
62 1 -1.0983 1.97373 0.456362
60 1 -0.587785 0.329188 0.156238
61 1 -0.919455 1.04417 0.799808
139 1 1.18773 0.673318 1.04286
65 1 0.133002 1.26895 1.78862
137 1 2.22562 0.719118 1.57042
63 1 -0.700118 2.16577 1.36442
64 1 0.275449 2.19862 1.45621
208 2 -1.39394 -1.91381 1.75128
206 2 -0.771375 -1.53209 2.52065
213 2 0.811582 -2.36079 1.98259
212 2 0.259439 -1.55533 2.06578
214 2 1.4054 -1.78825 1.39261
255 2 -1.85697 0.387568 1.96954
207 2 -1.68649 -1.22349 2.3196
348 2 -0.0346025 -0.506286 3.26477
217 2 0.88983 -1.07404 3.28032
216 2 1.33975 -0.650219 2.5187
346 2 0.0622368 0.286003 1.6731
215 2 1.72165 -1.58238 2.33464
252 2 -1.58472 0.922563 2.93006
253 2 -1.90333 1.47655 2.19063
256 2 -0.953191 0.295369 1.58274
347 2 -0.353946 0.0975994 2.56513
66 1 0.407138 1.14038 2.73505
136 1 2.11958 1.28606 2.38752
135 1 1.80844 0.384596 2.5484
67 1 0.927759 1.98272 2.84581
68 1 0.902208 2.28096 3.77889
205 2 -0.0171164 -1.67099 3.14563
204 2 -0.456213 -2.3849 3.7328
203 2 -1.43114 -2.25964 3.92546
202 2 -1.76033 -1.3327 4.1189
350 2 -0.543352 -0.763728 4.22267
218 2 1.52769 -1.74539 3.80084
227 2 0.584894 -1.89165 4.3053
349 2 0.0673119 0.00642144 4.08675
219 2 2.41803 -1.3392 4.00587
220 2 1.84615 -0.617998 3.55384
251 2 -1.82438 -0.0188571 2.93321
250 2 -1.7265 0.390208 3.82593
249 2 -0.825927 0.793263 3.9717
133 1 1.01105 0.870371 4.03568
132 1 0.0994504 1.12962 3.79096
134 1 1.76906 0.820031 3.40347
221 2 2.11934 0.0840575 4.19934
130 1 -0.687637 2.60719 4.52869
131 1 -0.494069 1.89414 3.88032
129 1 -0.0626773 2.12002 5.18718
69 1 0.490144 2.70033 4.52482
228 2 0.479347 -2.70496 4.83216
229 2 1.32079 -2.29294 5.02723
230 2 0.799279 -1.62077 5.48722
201 2 -1.83556 -0.435606 4.4897
399 2 -1.63468 -1.34958 6.06106
400 2 -1.34438 -0.824852 5.27069
351 2 -0.358937 -0.963152 5.20126
226 2 0.587417 -0.93026 4.57554
352 2 -0.0355977 -0.715993 6.14145
223 2 1.67214 -0.134994 5.05579
231 2 1.75734 -1.41113 5.52226
246 2 -1.92598 1.42144 5.66649
224 2 1.09813 0.559231 5.51757
225 2 0.548105 -0.248276 5.32536
222 2 2.44829 0.555718 5.0314
247 2 -1.0193 1.69979 5.35035
248 2 -1.20776 0.83781 4.89196
128 1 0.0747509 1.3808 5.83338
70 1 1.2132 2.63442 5.19388
71 1 0.900781 2.24593 6.02716
398 2 -0.991503 -1.53807 6.7775
396 2 -1.06217 -2.67076 7.91034
397 2 -0.589486 -2.37829 7.09684
237 2 0.146601 -1.70425 7.07422
355 2 -1.13497 -1.05396 8.00842
354 2 -1.40933 -0.446854 7.26111
353 2 -0.830005 -0.270534 6.42471
236 2 0.832539 -1.13689 7.47633
232 2 2.17762 -0.603183 5.91319
234 2 2.26239 -0.155701 7.0673
235 2 1.75199 -1.0264 7.18439
358 2 -2.80702 0.261162 7.7407
245 2 -2.01383 1.46616 6.67151
244 2 -1.61544 1.89617 7.50436
127 1 -0.613517 1.03849 6.45398
73 1 0.597819 1.11103 6.97353
233 2 1.48983 -0.0997414 6.43641
75 1 1.97971 1.63113 8.06952
243 2 -1.14521 2.32428 8.21501
72 1 1.37785 1.50725 6.53303
126 1 -0.0933271 1.87355 6.77924
125 1 0.447659 2.05857 7.59232
395 2 -1.39453 -2.04583 8.57587
238 2 -0.338442 -1.74587 7.9255
367 2 -0.268254 -1.91473 9.32907
357 2 -2.76133 -0.787077 7.57794
356 2 -2.14813 -1.27489 8.27937
239 2 -0.0442908 -0.811578 8.10998
81 1 1.57455 -0.793728 8.78446
78 1 2.66274 -0.248186 9.33083
80 1 1.42908 -1.68778 9.26683
359 2 -2.08142 0.464357 8.43456
360 2 -2.07877 -0.0392261 9.3516
241 2 -0.709195 0.864766 8.53139
240 2 -0.0718444 0.148726 8.27381
242 2 -0.424184 1.82209 8.68265
74 1 1.46372 0.916039 7.47246
123 1 0.860686 1.44614 8.45327
76 1 2.81476 1.10247 7.83658
77 1 2.72306 0.363737 8.49024
121 1 -0.0235691 2.47289 9.59895
124 1 0.511365 2.3578 8.53823
122 1 0.720731 1.75747 9.41971
394 2 -1.41299 -1.77638 9.51356
393 2 -1.01995 -1.64623 10.4012
392 2 -0.709921 -2.43391 10.9351
368 2 0.224133 -2.30394 10.1201
369 2 1.01515 -1.79544 10.3628
365 2 -0.576389 -0.694307 9.00297
366 2 -0.0913098 -1.05875 9.78452
114 1 -0.368954 -0.098963 10.912
83 1 1.13958 -0.257142 10.4486
82 1 0.93125 -0.538127 9.43469
79 1 2.30765 -1.18061 9.53075
362 2 -2.08082 -0.189062 10.627
361 2 -2.22543 0.623941 10.0499
364 2 -1.05885 0.102671 9.26769
363 2 -1.18667 -0.177998 10.194
120 1 -0.415067 1.62418 9.88226
116 1 -1.71018 1.05751 11.051
86 1 0.802715 1.24496 10.9729
85 1 1.54002 0.770701 10.472
119 1 -0.492385 2.21527 10.691
118 1 -1.33008 2.69166 10.5432
117 1 -1.74819 1.83548 10.3211
391 2 -0.981565 -2.30285 11.8853
390 2 -1.43538 -1.50848 11.3851
371 2 1.44057 -1.9944 11.624
370 2 1.64608 -1.26206 10.8877
389 2 -1.72065 -1.11073 12.2393
113 1 -0.370052 -0.961706 11.4268
112 1 0.61088 -0.862481 11.6179
111 1 1.39136 -0.59589 12.1344
115 1 -0.848396 0.78701 10.755
89 1 0.120173 0.976089 11.7994
84 1 1.70601 0.162511 11.2058
110 1 2.33329 -0.167154 12.1275
88 1 0.192666 1.98437 11.678
87 1 1.1828 1.91984 11.5906
373 2 -0.0355226 -2.16323 12.6126
372 2 0.963016 -2.435 12.396
387 2 -1.87023 -1.82989 13.864
386 2 -2.49876 -1.16256 14.2199
388 2 -1.60342 -1.12917 13.2312
374 2 0.352186 -1.29527 13.0551
91 1 -0.220678 0.377097 13.0386
375 2 0.287794 -1.27139 14.0639
379 2 2.42318 -0.962067 13.9291
96 1 -2.79792 0.698307 13.7709
94 1 -1.45648 0.341965 12.4789
95 1 -2.37327 0.318452 12.9055
93 1 -1.39669 0.633726 13.4748
92 1 -0.538587 0.508592 13.9734
100 1 -0.67199 1.62423 14.0764
90 1 0.59453 0.695892 12.6232
108 1 2.41998 1.45164 13.2526
109 1 2.21331 0.666451 12.5984
107 1 2.45212 0.543993 13.6991
383 2 -0.305785 -1.66767 15.1906
382 2 0.486297 -2.12144 15.3643
381 2 1.12203 -1.48099 14.7642
380 2 1.45963 -1.15756 13.8623
385 2 -1.71241 -0.600456 14.474
384 2 -0.93008 -0.975468 14.967
376 2 0.113417 -0.428774 14.5775
378 2 1.71943 -0.332891 14.3629
98 1 -1.4918 1.50632 14.9915
99 1 -1.10188 2.34554 14.6169
377 2 0.808797 -0.0350241 14.0042
104 1 0.75956 1.08751 14.4352
105 1 1.37535 0.727616 15.1645
106 1 2.22317 0.521776 14.6739
97 1 -2.01419 1.11688 14.2739
101 1 0.154826 1.48627 13.5193
103 1 0.732461 1.90789 15.0228
102 1 0.758967 2.12511 14.001
ITEM: TIMESTEP
600
ITEM: NUMBER OF ATOMS
400
ITEM: BOX BOUNDS ff ff ff
-5.0000000000000000e+01 5.0000000000000000e+01
-5.0000000000000000e+01 5.0000000000000000e+01
-5.0000000000000000e+01 5.0000000000000000e+01
ITEM: ATOMS id type x y z
316 2 -0.766336 -2.31591 -15.4496
317 2 -1.67846 -1.97935 -15.5617
318 2 -1.64445 -1.46852 -14.6834
319 2 -2.20507 -0.688923 -14.5035
315 2 -0.0532836 -1.78168 -14.9146
314 2 -0.263714 -1.78396 -13.9102
312 2 -0.0145849 -0.159997 -14.6727
313 2 -0.248882 -0.804988 -13.9393
295 2 1.12416 -0.758301 -14.8294
296 2 1.48738 0.119449 -15.1823
310 2 -1.16799 0.554258 -15.267
311 2 -0.922215 0.0954554 -14.458
308 2 -1.0276 1.92929 -14.6057
307 2 -0.653346 2.69611 -14.003
309 2 -1.63605 1.11248 -14.5877
321 2 -1.44002 -1.24171 -13.4762
323 2 -0.894522 -1.7409 -12.1969
320 2 -2.44669 -1.14304 -13.6253
322 2 -0.606288 -1.16598 -12.935
293 2 1.00382 -1.0753 -12.9421
294 2 0.979142 -1.23625 -13.9647
298 2 1.95093 0.3356 -13.4363
297 2 1.98113 0.53257 -14.4382
179 1 -2.55666 0.668534 -12.8094
181 1 -1.24689 -0.303457 -12.4749
178 1 -1.93111 0.421832 -13.5231
175 1 -1.74513 1.36675 -12.5179
177 1 -0.959589 0.51016 -13.3982
176 1 -1.09556 1.4857 -13.2298
299 2 0.94008 0.497527 -13.4484
300 2 1.20228 1.25417 -12.885
303 2 1.81335 2.41037 -12.9752
306 2 0.339369 2.499 -13.8946
304 2 1.88645 1.61491 -13.595
305 2 1.38541 2.40289 -13.9709
301 2 0.590031 2.07645 -12.5894
324 2 -0.0420594 -1.95972 -11.7299
325 2 0.205289 -2.80741 -11.2561
326 2 1.06646 -2.42626 -11.6006
180 1 -2.23954 -0.224254 -12.4575
172 1 -1.98569 -0.681844 -11.2706
292 2 1.10325 -0.329529 -12.309
289 2 2.16933 -0.192153 -11.0024
173 1 -2.59767 0.0781446 -11.4063
182 1 -0.681408 0.401441 -12.1073
282 2 -0.461634 1.78245 -10.1899
184 1 -0.24864 0.4681 -10.847
291 2 1.94958 0.0580127 -12.0454
183 1 0.231526 0.363536 -11.7064
290 2 2.4549 0.68322 -11.3646
174 1 -2.06877 0.936169 -11.6964
302 2 1.36139 2.40104 -12.0609
284 2 0.896475 2.63385 -10.865
168 1 -0.934741 -2.38923 -10.9023
166 1 -1.08937 -2.08795 -9.64021
167 1 -0.722244 -2.87412 -10.0629
328 2 0.764166 -3.05804 -10.3516
327 2 0.944783 -2.10855 -10.5686
171 1 -1.52929 -0.361329 -10.3912
169 1 -0.269454 -1.9421 -10.3829
170 1 -0.846026 -1.12721 -10.6675
164 1 -1.1299 -1.10011 -9.01162
186 1 -0.106728 0.181318 -9.55648
185 1 0.165142 -0.28195 -10.3886
288 2 1.89991 -0.0021683 -10.0432
276 2 -2.3474 2.09748 -10.4716
275 2 -2.71532 1.15745 -10.38
283 2 0.500074 1.80785 -10.3942
286 2 1.50996 1.16439 -10.1917
285 2 1.67075 2.0721 -10.4757
287 2 1.82283 0.70938 -9.34733
277 2 -1.79237 2.73523 -10.0158
281 2 -0.597022 2.73782 -10.3459
280 2 -0.00206931 2.68878 -9.46262
12 1 -1.33049 -2.03757 -7.94516
165 1 -1.75829 -1.40424 -9.72596
11 1 -1.9531 -2.76462 -8.13741
329 2 0.753557 -2.71559 -9.36837
330 2 0.343914 -2.47453 -8.52561
30 1 1.51124 -1.60605 -7.94971
13 1 -1.98555 -1.40155 -7.46428
163 1 -0.178864 -0.871229 -8.67866
162 1 0.181833 -0.80294 -7.77073
29 1 1.65499 -1.04654 -8.78718
28 1 2.35667 -0.412321 -8.50306
274 2 -1.89074 1.11014 -9.89416
273 2 -1.69717 0.712238 -8.99472
188 1 0.590291 0.885658 -9.16585
272 2 -1.48284 1.40594 -8.27148
189 1 0.144219 1.48575 -8.46213
187 1 0.648375 0.506201 -10.0765
161 1 0.654932 -0.143866 -8.30383
160 1 1.50891 0.298992 -8.24261
278 2 -1.2956 3.22423 -9.28561
279 2 -0.398576 3.62353 -9.57292
10 1 -1.52081 -2.95453 -7.2817
9 1 -1.6874 -3.04153 -6.30901
331 2 -0.268 -2.70809 -7.78216
31 1 1.89108 -2.02076 -7.09623
332 2 -0.0828001 -2.47324 -6.85557
16 1 -1.69642 -0.537498 -7.01286
15 1 -0.891435 -0.571778 -7.58161
14 1 -1.0666 -1.46654 -7.00895
25 1 1.44437 -0.966539 -7.04765
26 1 1.98261 -0.231555 -7.42121
24 1 0.976756 -1.64983 -6.52596
32 1 2.03838 -1.74446 -6.14461
27 1 2.76061 0.235547 -7.89385
190 1 -0.180818 1.77523 -7.55799
270 2 -1.7391 1.59598 -6.39552
159 1 0.943588 0.980807 -7.71423
158 1 0.438959 0.905254 -6.87023
271 2 -1.4365 1.61766 -7.33144
191 1 0.664336 2.03094 -7.04923
192 1 1.51789 2.06911 -6.59374
7 1 -0.687801 -2.39847 -4.73524
8 1 -1.29684 -2.76021 -5.45492
333 2 0.268237 -2.57185 -5.9414
334 2 0.513469 -2.15333 -5.09992
17 1 -1.85268 -0.971724 -6.18068
18 1 -1.15691 -1.19197 -5.53504
19 1 -1.46573 -0.266659 -5.39911
22 1 -0.382275 -0.547377 -5.84648
20 1 -0.822625 -0.0790919 -4.69648
33 1 1.56892 -1.13297 -5.47009
23 1 0.484786 -0.981549 -5.83237
34 1 1.94692 -0.456659 -6.05277
35 1 2.90225 -0.745915 -6.06649
268 2 -1.91021 0.675255 -5.64686
269 2 -1.1744 1.35257 -5.61528
156 1 0.893537 0.681334 -5.44044
157 1 0.230473 0.308807 -6.12097
155 1 1.52749 1.28189 -4.86738
36 1 2.6076 0.109493 -5.53347
195 1 -0.722115 2.47994 -5.43679
196 1 -0.593594 2.40531 -4.49972
193 1 0.910744 1.67623 -5.91744
194 1 0.206452 2.38489 -5.79471
197 1 0.416318 2.34831 -4.40076
6 1 -1.35771 -2.24796 -4.01194
5 1 -0.720444 -2.76955 -3.46317
4 1 -1.14377 -2.08446 -2.89984
335 2 1.29782 -2.5709 -4.6946
336 2 0.790964 -2.25615 -3.87997
337 2 1.28149 -2.56521 -3.04528
264 2 -2.33067 -0.0624755 -3.15673
3 1 -0.942299 -1.1694 -3.33209
21 1 0.0928279 -0.0351187 -5.14044
38 1 2.68493 -0.989271 -3.86062
37 1 2.70894 -0.304509 -4.6115
39 1 2.56655 -0.307512 -3.12782
267 2 -1.97421 1.33178 -4.92245
266 2 -1.7275 0.448088 -4.36587
265 2 -1.40055 0.234258 -3.46537
152 1 -0.161809 1.14302 -3.49556
153 1 0.429578 0.764752 -4.28464
154 1 1.42839 0.550858 -4.16486
198 1 1.17594 1.90289 -4.06311
53 1 -0.830776 -2.31133 -1.36764
339 2 1.0582 -2.08845 -1.84557
338 2 0.480795 -2.02223 -2.66569
263 2 -2.18632 0.321156 -2.24086
52 1 -0.388508 -1.45826 -1.64296
50 1 0.054177 -0.15116 -2.03146
2 1 -0.00347308 -1.15889 -2.98897
41 1 1.48834 -0.32694 -2.09865
262 2 -2.84108 0.0467056 -1.48443
261 2 -2.74646 1.02106 -1.62475
150 1 -0.847033 1.95535 -2.4054
200 1 0.6434 0.744482 -2.60956
1 1 0.341424 -0.197002 -2.99979
43 1 1.74584 1.21436 -2.39124
40 1 1.54335 -0.497069 -3.04782
42 1 2.18223 0.359775 -1.95529
149 1 -1.50396 1.21608 -2.29772
151 1 -0.0970217 1.36003 -2.44734
147 1 -1.38685 2.32902 -1.13205
199 1 1.05958 1.38337 -3.26151
44 1 1.97337 2.20702 -2.52982
57 1 -1.72649 -2.00608 -0.0248947
56 1 -1.21522 -2.89979 -0.0729202
55 1 -0.527516 -2.22978 -0.375663
54 1 0.0716218 -2.65565 -1.01715
341 2 1.243 -1.81849 -0.694879
340 2 1.84076 -1.67627 -1.48901
58 1 -1.30674 -1.21688 -0.414839
51 1 0.39386 -0.917808 -1.49466
59 1 -0.465893 -0.59957 -0.484662
342 2 0.286762 -1.36801 -0.586475
141 1 1.72762 0.530227 -0.308761
260 2 -1.97969 0.688392 -1.08377
259 2 -1.36734 0.249654 -0.457807
47 1 0.64193 1.30706 -1.61739
48 1 0.0391537 0.827267 -0.991557
46 1 1.15713 1.87293 -1.00509
49 1 0.718459 0.283472 -1.44666
142 1 2.17075 1.20068 0.32492
148 1 -1.91439 1.63063 -1.52319
146 1 -0.521069 1.91885 -0.788675
45 1 2.04508 2.12977 -1.49632
144 1 1.11673 2.48573 -0.155818
145 1 0.234147 2.10691 -0.0837948
143 1 1.21927 1.55536 0.12879
211 2 0.243061 -2.41933 1.19233
210 2 -0.683628 -2.34542 0.794863
343 2 0.237727 -1.07981 0.376086
258 2 -1.81172 -0.481832 0.0466437
209 2 -1.1994 -1.54649 1.07043
257 2 -1.36472 -0.403788 0.908675
140 1 0.880595 0.309324 0.141878
344 2 -0.39881 -0.843647 1.078
345 2 0.470828 -0.642232 1.48702
138 1 2.02193 0.0255287 1.33186
254 2 -2.72935 0.901908 1.63141
62 1 -0.994574 2.06464 0.366925
60 1 -0.488122 0.166273 0.243024
61 1 -0.836417 1.06143 0.412623
139 1 1.33105 0.668065 0.94693
65 1 0.194438 1.22213 1.43222
137 1 2.24621 0.983494 1.34979
63 1 -1.11926 2.19699 1.36077
64 1 -0.0835839 2.13254 1.70978
208 2 -1.66707 -1.91848 1.90402
206 2 -0.744468 -1.51117 2.22588
213 2 0.9722 -2.04848 2.3374
212 2 0.232646 -1.6717 1.82598
214 2 1.34898 -1.74449 1.42463
255 2 -1.876 0.354751 1.61355
207 2 -1.6704 -1.07776 2.45933
348 2 -0.229779 -0.231669 3.35027
217 2 1.19434 -1.35392 2.97839
216 2 1.2485 -0.525771 2.51582
346 2 0.15647 0.267158 1.74994
215 2 1.79181 -1.21063 2.07306
252 2 -1.62615 0.936519 2.88956
253 2 -2.01135 1.37284 2.12147
256 2 -0.890009 0.390663 1.39115
347 2 -0.518793 -0.0764546 2.44037
66 1 0.627444 1.2295 2.34614
136 1 1.7996 1.45943 2.1546
135 1 1.70208 0.517715 2.47966
67 1 1.07271 2.03499 2.81531
68 1 1.13169 2.10049 3.83231
205 2 -0.323747 -1.61291 3.11576
204 2 -0.632113 -2.52812 3.12905
203 2 -1.39659 -2.10542 3.65521
202 2 -1.77242 -1.57746 4.42193
350 2 -0.527827 -1.03108 4.282
218 2 1.33654 -1.97832 3.74133
227 2 0.395581 -1.65968 3.95751
349 2 -0.132399 -0.129601 4.35424
219 2 1.81978 -1.33991 4.31999
220 2 2.04766 -0.567534 3.71578
251 2 -1.3884 -0.0338419 3.08393
250 2 -1.66881 0.29503 3.98048
249 2 -0.948343 0.944119 4.21489
133 1 0.965204 1.02326 3.3093
132 1 0.189322 1.59435 3.43954
134 1 1.97918 0.926649 3.31834
221 2 2.04369 0.321408 4.15488
130 1 -0.545869 2.68673 4.76853
131 1 -0.451495 1.83895 4.20352
129 1 0.138268 2.00154 5.01032
69 1 0.848287 2.81476 4.51579
228 2 0.612734 -2.47499 4.39827
229 2 1.39175 -2.14515 4.78622
230 2 0.719441 -1.86717 5.46732
201 2 -1.90379 -0.620896 4.31631
399 2 -1.43375 -0.999125 6.13053
400 2 -1.43017 -0.603698 5.18947
351 2 -0.414129 -0.773539 5.24042
226 2 0.598328 -0.96094 4.74126
352 2 0.0438823 -0.496079 6.0391
223 2 1.88731 -0.113544 5.17081
231 2 1.38364 -1.18889 5.72862
246 2 -1.87009 1.08617 5.75242
224 2 1.19159 0.610522 5.36947
225 2 0.538044 -0.128451 5.22817
222 2 2.65104 0.4992 4.93182
247 2 -1.18321 1.72418 5.32424
248 2 -0.806629 0.775546 5.21598
128 1 -0.0531788 1.26588 5.61002
70 1 1.43986 2.18813 5.00983
71 1 0.993932 2.04483 5.89637
398 2 -0.981847 -1.6535 6.72624
396 2 -0.95181 -2.87145 8.15113
397 2 -0.746757 -2.4326 7.30503
237 2 0.0878089 -1.6164 7.00538
355 2 -1.2867 -1.28725 7.85515
354 2 -1.30447 -0.388526 7.38778
353 2 -0.71441 -0.265106 6.64267
236 2 0.866558 -1.38727 7.56955
232 2 2.16635 -0.912615 6.29386
234 2 2.30793 -0.160277 7.16334
235 2 1.6094 -0.811612 7.49879
358 2 -2.77566 0.305088 8.39317
245 2 -1.873 1.36364 6.73888
244 2 -1.22561 1.89917 7.28605
127 1 -0.476986 0.92149 6.38737
73 1 0.695336 1.07804 7.12024
233 2 1.57307 -0.135592 6.49256
75 1 1.75426 1.62593 8.16883
243 2 -0.698873 2.26379 8.03652
72 1 1.20024 1.91768 6.88698
126 1 -0.281666 1.85612 6.75608
125 1 0.337227 2.03712 7.48407
395 2 -1.24839 -2.0756 8.71698
238 2 -0.121739 -1.8177 8.0609
367 2 -0.37864 -1.97317 9.27655
357 2 -2.82776 -0.497494 7.78764
356 2 -2.18257 -1.08203 8.33878
239 2 -0.179832 -0.845446 7.89177
81 1 1.29057 -0.402761 8.77124
78 1 2.66733 -0.620998 9.07644
80 1 1.26075 -1.36229 8.97408
359 2 -1.81827 0.565308 8.71865
360 2 -2.39399 -0.0179769 9.28726
241 2 -0.452362 0.867649 8.77942
240 2 -0.132402 0.155167 8.13504
242 2 -0.37049 1.85513 8.90757
74 1 1.5606 0.954701 7.47687
123 1 0.497785 1.35751 8.68966
76 1 2.69754 1.15982 8.20468
77 1 2.70033 0.127308 8.42898
121 1 0.399854 2.33769 9.78237
124 1 0.427255 2.30549 8.38303
122 1 1.01659 1.63432 9.4236
394 2 -1.62497 -1.64552 9.5198
393 2 -1.17179 -1.96312 10.3486
392 2 -0.692415 -2.40679 11.0816
368 2 0.282889 -1.98832 10.0208
369 2 1.28797 -1.85076 10.1568
365 2 -0.0604272 -0.53213 8.91073
366 2 -0.304957 -1.03052 9.76086
114 1 -0.395781 -0.186934 11.1836
83 1 1.02009 -0.0430067 10.6185
82 1 1.22493 0.152955 9.65002
79 1 2.10609 -1.45712 9.32089
362 2 -2.15241 -0.0710773 10.5934
361 2 -2.65567 0.577984 10.067
364 2 -0.696447 -0.121754 9.56581
363 2 -1.21638 -0.457515 10.3615
120 1 0.0391485 1.41908 10.1518
116 1 -1.62676 1.09821 10.6643
86 1 0.858714 1.00735 10.8131
85 1 1.78155 0.761577 10.7279
119 1 -0.354057 2.27975 10.5407
118 1 -1.31582 2.71286 10.3628
117 1 -1.97689 2.03352 10.5708
391 2 -1.12307 -2.37661 11.9937
390 2 -1.3498 -1.48483 11.6773
371 2 1.06444 -1.93779 11.3949
370 2 1.49211 -1.19803 10.8593
389 2 -2.09773 -1.57551 12.3802
113 1 -0.177679 -1.14774 11.0392
112 1 0.553561 -1.02528 11.7305
111 1 1.42958 -0.587458 12.0403
115 1 -0.785787 0.656688 10.8297
89 1 -0.105871 1.25617 11.9827
84 1 1.42617 0.194606 11.431
110 1 2.1369 0.0475904 12.3282
88 1 0.608729 1.95853 11.8771
87 1 1.38717 1.75132 11.2507
373 2 0.0955744 -2.41584 12.9761
372 2 0.781404 -2.59019 12.1787
387 2 -1.84922 -1.71673 13.6946
386 2 -2.51764 -1.12832 14.2106
388 2 -2.2674 -0.937614 13.1759
374 2 -0.0243684 -1.43764 13.0753
91 1 -0.349968 0.602399 12.8963
375 2 0.234006 -1.49181 14.0345
379 2 2.53863 -0.820732 14.1454
96 1 -2.65777 0.654839 13.7992
94 1 -1.40748 -0.0511032 12.5898
95 1 -2.2827 0.277461 12.956
93 1 -1.29723 0.389293 13.5
92 1 -0.426164 0.611544 13.8852
100 1 -0.552636 2.00029 14.1693
90 1 0.515797 0.631809 12.3754
108 1 2.71113 1.19287 13.6685
109 1 2.77816 0.553124 12.9124
107 1 1.97935 0.489424 13.7608
383 2 -0.294666 -1.78609 15.2167
382 2 0.667672 -1.94285 15.4263
381 2 1.2432 -1.38502 14.8094
380 2 1.74878 -1.45298 13.9484
385 2 -1.62884 -0.756778 14.5718
384 2 -0.860537 -0.981094 15.2015
376 2 -0.10719 -0.558809 14.0794
378 2 1.74895 -0.29026 14.4586
98 1 -1.32702 1.48341 14.8585
99 1 -1.13167 2.51667 14.7964
377 2 0.720989 -0.233946 14.5203
104 1 0.359671 1.15427 14.8783
105 1 1.21699 0.691374 15.037
106 1 2.16271 0.85903 14.7056
97 1 -1.77968 0.89084 14.2124
101 1 0.0102061 1.66367 13.4168
103 1 1.09267 1.88336 14.7904
102 1 0.464494 2.31723 14.0404
ITEM: TIMESTEP
700
ITEM: NUMBER OF ATOMS
400
ITEM: BOX BOUNDS ff ff ff
-5.0000000000000000e+01 5.0000000000000000e+01
-5.0000000000000000e+01 5.0000000000000000e+01
-5.0000000000000000e+01 5.0000000000000000e+01
ITEM: ATOMS id type x y z
316 2 -0.852157 -2.3082 -15.0599
317 2 -1.23159 -1.63134 -15.611
318 2 -1.79508 -1.35748 -14.8234
319 2 -2.26347 -0.56155 -14.5478
315 2 -0.165228 -1.63316 -14.8563
314 2 -0.80444 -1.57673 -14.1269
312 2 0.0152602 0.046898 -14.5931
313 2 -0.338767 -0.700703 -14.0073
295 2 0.889384 -0.560764 -15.0229
296 2 1.68795 0.131536 -15.2379
310 2 -1.09463 0.427015 -15.2464
311 2 -0.801652 0.40549 -14.3024
308 2 -1.03798 1.84031 -14.9209
307 2 -0.205437 2.09127 -14.4761
309 2 -1.76939 1.18541 -15.2162
321 2 -1.67105 -1.06845 -13.5302
323 2 -0.581053 -1.87326 -12.5534
320 2 -2.54597 -1.35812 -13.9567
322 2 -0.715819 -1.06314 -13.1089
293 2 1.11892 -0.940727 -13.1247
294 2 1.28123 -0.820546 -14.145
298 2 1.93992 0.28617 -13.6136
297 2 2.30398 0.406239 -14.4834
179 1 -2.59701 0.531384 -12.89
181 1 -1.28033 -0.0697874 -12.1821
178 1 -1.8281 0.725543 -13.4529
175 1 -1.97425 1.55466 -12.4937
177 1 -0.933669 0.541849 -13.0021
176 1 -1.06503 1.53593 -12.9278
299 2 0.919317 0.532135 -13.5897
300 2 0.722311 1.01726 -12.6717
303 2 1.7773 2.24207 -12.8179
306 2 0.531911 2.34245 -13.8942
304 2 2.38106 1.99542 -13.5498
305 2 1.49747 2.39017 -13.7992
301 2 0.785088 1.99985 -12.5358
324 2 0.0676962 -2.09761 -11.785
325 2 0.805835 -2.62623 -12.1588
326 2 1.30277 -2.41737 -11.3296
180 1 -2.05864 -0.327613 -12.8158
172 1 -1.94331 -0.669251 -11.41
292 2 1.35107 -0.574614 -12.2499
289 2 2.31419 -0.0899596 -10.8362
173 1 -2.28682 0.257385 -11.3052
182 1 -0.475955 0.45187 -11.951
282 2 -0.350867 1.65298 -10.2272
184 1 -0.444467 0.407508 -10.8185
291 2 1.74537 0.299631 -11.9608
183 1 0.287519 0.834022 -11.4486
290 2 2.47652 0.724329 -11.4518
174 1 -1.84102 1.01449 -11.7188
302 2 1.33076 2.67256 -12.0992
284 2 0.972667 2.59229 -11.0895
168 1 -1.22444 -2.28256 -10.9513
166 1 -1.19811 -2.08367 -9.58272
167 1 -0.964905 -2.87927 -10.2035
328 2 0.523399 -3.02758 -10.1381
327 2 0.777863 -2.14709 -10.5421
171 1 -1.48631 -0.48532 -10.5046
169 1 -0.496803 -1.79238 -10.3983
170 1 -0.638718 -0.899757 -10.9146
164 1 -1.22128 -1.2535 -9.01419
186 1 0.426454 -0.236255 -9.49905
185 1 0.178877 -0.233498 -10.4572
288 2 1.73707 0.0837358 -10.053
276 2 -2.30541 2.09903 -10.3477
275 2 -2.79214 1.24754 -10.399
283 2 0.293651 1.85495 -10.9703
286 2 1.63332 1.24669 -9.9021
285 2 1.50353 2.17659 -10.2807
287 2 2.16611 0.567965 -9.31123
277 2 -1.54627 2.5572 -9.99437
281 2 -0.362924 2.61625 -10.2436
280 2 0.293927 2.89612 -9.51225
12 1 -1.15384 -2.00878 -8.21589
165 1 -1.7191 -1.27793 -9.92338
11 1 -1.76758 -2.74249 -8.20496
329 2 1.0593 -2.5698 -9.41005
330 2 0.421962 -2.51919 -8.60816
30 1 1.53944 -1.84168 -7.98633
13 1 -1.91875 -1.55814 -7.82767
163 1 -0.329202 -1.00984 -8.57909
162 1 0.294475 -0.826209 -7.84008
29 1 1.77311 -1.22388 -8.70388
28 1 2.33635 -0.388549 -8.76919
274 2 -1.83698 1.31284 -10.018
273 2 -1.85932 1.02299 -8.97956
188 1 0.446278 1.05994 -9.03633
272 2 -1.50267 1.0438 -8.05777
189 1 -0.00353778 1.5398 -8.30861
187 1 0.697231 0.634359 -9.92351
161 1 0.768677 -0.239493 -8.51088
160 1 1.47154 0.339315 -8.1378
278 2 -1.06833 2.97271 -9.23177
279 2 -0.460253 3.61057 -9.5712
10 1 -1.51271 -2.90459 -7.25338
9 1 -1.77538 -2.73981 -6.18715
331 2 -0.136993 -2.47686 -7.8161
31 1 1.80248 -2.13426 -7.03446
332 2 -0.216601 -2.27253 -6.79603
16 1 -1.90729 -0.725529 -7.05929
15 1 -1.21529 -0.569194 -7.75473
14 1 -1.11051 -1.43105 -7.24173
25 1 1.39176 -0.640758 -7.06006
26 1 2.17119 -0.156255 -7.45696
24 1 1.12364 -1.36951 -6.41278
32 1 2.02994 -1.7817 -6.10305
27 1 2.88191 0.0561003 -8.04823
190 1 -0.250085 2.21049 -7.58733
270 2 -1.78546 1.8141 -6.38273
159 1 0.919709 1.04782 -7.68349
158 1 0.42407 0.681286 -6.88911
271 2 -1.47019 1.70225 -7.34292
191 1 0.58331 2.2362 -7.03097
192 1 1.49816 2.05637 -6.78278
7 1 -0.634611 -2.62745 -4.53455
8 1 -1.3272 -2.54023 -5.27963
333 2 0.380672 -2.69179 -6.1032
334 2 0.458442 -1.98841 -5.36409
17 1 -1.67979 -1.41302 -6.32169
18 1 -1.25102 -1.32723 -5.38715
19 1 -1.54969 -0.445088 -5.06455
22 1 -0.115472 -0.375381 -5.72294
20 1 -0.794887 -0.282278 -4.44107
33 1 1.84775 -1.16441 -5.30286
23 1 0.760426 -0.910125 -5.60553
34 1 1.90615 -0.302223 -5.83682
35 1 2.79988 -0.635733 -6.03375
268 2 -1.73503 0.652304 -5.59484
269 2 -1.21705 1.51015 -5.56952
156 1 1.2507 0.591389 -5.54393
157 1 0.31662 0.593607 -5.89597
155 1 1.85414 1.33384 -5.15615
36 1 2.71745 0.0211982 -5.29808
195 1 -0.436759 2.85965 -5.41868
196 1 -0.556111 2.38122 -4.53432
193 1 0.86158 1.57294 -6.04631
194 1 0.0938871 2.30025 -6.02576
197 1 0.398256 2.17406 -4.70336
6 1 -1.45778 -2.30272 -3.97058
5 1 -0.994255 -2.90677 -3.26205
4 1 -0.729892 -1.91322 -3.09463
335 2 1.05257 -2.41999 -4.59046
336 2 1.03979 -1.80037 -3.81902
337 2 0.837892 -2.63478 -3.2138
264 2 -1.82192 -0.210804 -3.10763
3 1 -0.872065 -0.952585 -3.26788
21 1 0.078277 -0.591505 -4.72328
38 1 2.68922 -0.865226 -4.24577
37 1 2.29153 0.0264496 -4.38879
39 1 2.66964 -0.338444 -3.39904
267 2 -2.10716 1.32558 -5.0261
266 2 -1.55899 0.674805 -4.33574
265 2 -1.15934 0.374235 -3.47718
152 1 -0.0816337 1.04314 -3.59305
153 1 0.688212 0.623686 -3.98874
154 1 1.61551 1.01991 -4.25314
198 1 1.08528 1.95655 -3.99731
53 1 -0.793501 -2.43634 -1.61179
339 2 0.861336 -2.12154 -1.80173
338 2 0.642393 -1.84542 -2.73267
263 2 -2.41159 -0.0951987 -2.30924
52 1 -0.375615 -1.55487 -1.76944
50 1 -0.133237 -0.225927 -2.03894
2 1 -0.0705917 -1.0219 -2.75527
41 1 1.82355 -0.223751 -2.40488
262 2 -2.77309 0.224964 -1.48788
261 2 -2.73415 1.22946 -1.53068
150 1 -1.1191 1.4621 -2.93379
200 1 0.418195 0.726785 -2.64571
1 1 0.322063 -0.18891 -3.00185
43 1 2.27639 1.37778 -2.44458
40 1 2.12487 -1.01723 -2.86893
42 1 2.43601 0.501232 -2.08954
149 1 -1.57465 0.949472 -2.15504
151 1 -0.119381 1.56807 -2.75642
147 1 -1.0684 2.48242 -1.11146
199 1 1.08781 1.28948 -3.19982
44 1 1.79656 2.2189 -2.63896
57 1 -1.83348 -1.99296 -0.524568
56 1 -1.51428 -2.88427 -0.110167
55 1 -0.762913 -2.34271 -0.525715
54 1 -0.152283 -3.02347 -1.08123
341 2 1.22233 -1.21007 -1.02336
340 2 1.74063 -1.79837 -1.68181
58 1 -1.28047 -1.12822 -0.633956
51 1 0.270292 -0.925141 -1.32747
59 1 -0.592915 -0.45849 -0.550527
342 2 0.529868 -1.47705 -0.350941
141 1 1.58634 0.25772 0.0665554
260 2 -2.00974 0.836433 -0.948241
259 2 -1.62644 0.332493 -0.19273
47 1 0.364931 1.37437 -1.50267
48 1 0.160178 0.885275 -0.661826
46 1 1.14977 1.95822 -1.45229
49 1 0.245094 0.0442904 -1.17015
142 1 2.14032 1.04686 0.249596
148 1 -1.61301 1.78049 -1.59345
146 1 -0.0455274 2.34713 -1.02838
45 1 2.06044 2.1956 -1.64891
144 1 1.02224 2.56222 0.227652
145 1 0.232988 2.03207 -0.130528
143 1 1.32052 1.65639 -0.000792972
211 2 0.0134373 -2.5001 1.26952
210 2 -0.870668 -2.52962 0.736589
343 2 -0.0205268 -1.15906 0.358108
258 2 -1.8703 -0.595879 0.0525929
209 2 -1.29416 -1.66658 1.02486
257 2 -1.37333 -0.127111 0.815091
140 1 0.685032 0.686872 0.20101
344 2 -0.322629 -0.667539 1.12553
345 2 0.550583 -0.388249 1.3718
138 1 1.79299 0.0958023 1.41949
254 2 -2.74183 0.685984 1.60038
62 1 -1.06119 2.21369 0.258611
60 1 -0.581905 0.351075 0.00541967
61 1 -1.1209 1.18893 0.256543
139 1 1.27366 0.839914 1.01417
65 1 -0.0998534 1.26273 1.41316
137 1 2.35839 0.963265 1.55869
63 1 -1.03477 2.63149 1.23068
64 1 -0.263898 2.19664 1.62808
208 2 -1.715 -1.87777 1.88945
206 2 -0.672793 -1.46657 2.22511
213 2 1.01488 -2.25365 1.8365
212 2 0.336836 -1.55771 1.53413
214 2 1.51891 -1.65825 1.17123
255 2 -1.81187 0.419172 1.94487
207 2 -1.63768 -1.21676 2.57635
348 2 -0.594106 -0.48801 3.42604
217 2 1.18131 -1.17306 3.0572
216 2 1.67758 -0.678577 2.30895
346 2 0.550159 0.200423 2.13858
215 2 2.17724 -1.43962 1.89752
252 2 -1.7361 0.929821 2.91032
253 2 -2.45827 1.33966 2.31539
256 2 -0.892239 0.116055 1.65599
347 2 -0.0947837 -0.358993 2.61614
66 1 0.674068 1.42891 2.03818
136 1 1.71094 1.56893 1.9202
135 1 1.87638 0.766958 2.51482
67 1 0.994722 2.03727 2.75639
68 1 1.2292 2.10225 3.68571
205 2 -0.508953 -1.76758 3.16309
204 2 -0.561711 -2.68572 3.48599
203 2 -1.2564 -2.22807 3.9945
202 2 -2.02542 -1.64724 4.23271
350 2 -0.542511 -1.02598 4.35846
218 2 1.52915 -1.95471 3.69047
227 2 0.399645 -1.37202 3.89806
349 2 -0.0827056 -0.137618 4.21601
219 2 2.03605 -1.27971 4.19904
220 2 1.92133 -0.371909 3.78183
251 2 -1.71357 -0.0326468 3.1689
250 2 -1.85172 0.22928 4.10578
249 2 -0.979703 0.673048 4.1236
133 1 0.831517 0.932945 3.10051
132 1 -0.0199479 1.4031 3.40265
134 1 1.6713 0.685891 3.51218
221 2 1.63485 0.246521 4.51907
130 1 -0.628918 2.48487 4.9186
131 1 -0.487349 2.03984 4.03595
129 1 -0.192498 1.61695 5.01547
69 1 0.589866 2.53194 4.39188
228 2 0.514461 -2.3458 4.09562
229 2 1.14825 -1.9558 4.74334
230 2 0.722546 -1.68384 5.61183
201 2 -2.14323 -0.679295 4.41295
399 2 -1.33393 -1.24768 6.00293
400 2 -1.499 -0.67512 5.21475
351 2 -0.501137 -0.715287 5.27147
226 2 0.727048 -0.766587 4.63012
352 2 -0.00673875 -0.884532 6.10513
223 2 2.05796 0.212101 5.68582
231 2 1.67097 -1.29656 5.62181
246 2 -1.78062 1.07105 5.62798
224 2 1.1401 0.656061 5.53878
225 2 0.760039 -0.265785 5.45571
222 2 2.57082 0.290578 4.82903
247 2 -1.22585 1.69304 5.11151
248 2 -0.908302 0.754823 5.12254
128 1 0.150487 1.07595 5.86044
70 1 1.3066 2.3099 4.9855
71 1 0.83492 2.11755 5.83394
398 2 -0.98334 -2.14456 6.51281
396 2 -1.24845 -2.91758 8.38404
397 2 -0.992958 -2.32785 7.53081
237 2 -0.0311284 -1.79548 7.00716
355 2 -1.46853 -1.37372 7.50295
354 2 -1.22134 -0.455065 7.25845
353 2 -0.45392 -0.215195 6.70646
236 2 0.863568 -1.63244 7.34273
232 2 1.8333 -1.08382 6.57332
234 2 2.14527 -0.14565 7.39421
235 2 1.59 -0.989756 7.63239
358 2 -2.77798 0.56377 8.27414
245 2 -2.05338 1.23708 6.64342
244 2 -1.26948 1.65369 6.98946
127 1 -0.569709 1.12439 6.53043
73 1 0.760532 1.0332 7.06074
233 2 1.52274 -0.105251 6.63213
75 1 1.86082 1.36137 8.25673
243 2 -0.926094 1.76606 7.89539
72 1 0.934233 1.91531 6.78878
126 1 -0.172235 2.06775 6.78898
125 1 0.288222 2.4045 7.56533
395 2 -1.93606 -2.29374 8.64137
238 2 -0.176424 -1.92197 7.95287
367 2 -0.300414 -2.02985 9.45907
357 2 -2.46811 -0.361472 8.11952
356 2 -2.34977 -1.29692 7.98172
239 2 -0.328395 -0.949643 7.85134
81 1 1.44365 -0.1864 8.74674
78 1 2.46993 -0.417693 9.4305
80 1 1.53846 -1.20945 8.87111
359 2 -1.8664 0.330055 8.61671
360 2 -2.33993 -0.164209 9.36286
241 2 -0.273585 0.771412 8.33454
240 2 -0.234412 0.0711379 7.6515
242 2 -0.521048 1.63132 8.8193
74 1 1.70674 1.09776 7.30562
123 1 0.629332 1.27139 8.79754
76 1 2.63832 0.697681 8.03796
77 1 2.61153 -0.173624 8.46408
121 1 0.734691 2.15512 9.94376
124 1 0.937706 2.05756 8.23937
122 1 1.07505 1.25171 9.72646
394 2 -1.5721 -1.75863 9.44684
393 2 -1.00898 -1.69705 10.298
392 2 -0.685339 -2.28287 11.0053
368 2 0.468927 -1.6373 9.93447
369 2 1.40076 -2.00351 10.0291
365 2 0.00468991 -0.308802 9.1896
366 2 -0.491884 -1.11689 9.52445
114 1 -0.332789 -0.284123 11.1261
83 1 0.911411 -0.167693 10.6223
82 1 1.10079 -0.324953 9.65152
79 1 1.73175 -1.02853 9.80733
362 2 -1.90139 -0.223514 10.3911
361 2 -2.74363 0.214773 10.1688
364 2 -0.912435 -0.0361696 9.37849
363 2 -1.39928 -0.787374 9.81689
120 1 0.0556891 1.41706 10.2138
116 1 -1.41263 1.14189 10.6084
86 1 1.05412 0.99679 11.0116
85 1 1.86203 0.487245 10.6298
119 1 -0.290117 2.32322 10.6164
118 1 -1.25095 2.45687 10.2679
117 1 -1.85756 1.95783 10.8658
391 2 -1.48411 -2.32859 11.6056
390 2 -1.39583 -1.35244 11.6718
371 2 1.08264 -2.14152 11.1302
370 2 1.79689 -1.49209 10.8009
389 2 -2.14262 -1.42838 12.3105
113 1 -0.195645 -1.29937 11.2848
112 1 0.44782 -1.00451 11.977
111 1 1.39785 -0.689711 12.0822
115 1 -0.689 0.555227 10.7863
89 1 0.247788 1.21158 11.8559
84 1 1.39777 0.170056 11.4175
110 1 1.79504 -0.0356156 12.6853
88 1 0.621029 2.08131 11.7812
87 1 1.19929 1.97468 10.9495
373 2 -0.143823 -2.3714 12.7712
372 2 0.615497 -2.38288 12.063
387 2 -2.27483 -1.74946 13.3543
386 2 -2.26935 -0.966826 13.9856
388 2 -2.512 -0.848662 12.9932
374 2 -0.00355024 -1.54628 13.3126
91 1 -0.512432 0.66202 12.9458
375 2 0.678633 -1.03815 13.8109
379 2 2.24243 -0.925175 14.3627
96 1 -2.75958 0.518882 13.5791
94 1 -1.51205 -0.308925 12.981
95 1 -2.1328 0.40271 12.8226
93 1 -1.26517 0.342418 13.661
92 1 -0.434464 0.908316 13.931
100 1 -0.725347 1.84596 13.9733
90 1 0.447419 1.00561 12.7758
108 1 2.86006 1.05144 13.677
109 1 2.22793 0.808854 12.9623
107 1 2.252 0.274062 13.97
383 2 -0.432423 -1.67315 15.7858
382 2 0.474331 -1.82973 15.4386
381 2 1.09331 -1.38303 14.8447
380 2 1.58556 -1.54455 14.036
385 2 -1.38125 -0.889649 14.4033
384 2 -0.831037 -0.973573 15.2145
376 2 -0.0573408 -0.548665 14.1695
378 2 1.63409 -0.396631 14.8936
98 1 -1.64676 1.29325 14.7845
99 1 -0.936531 1.93078 14.9463
377 2 0.696913 -0.272289 14.6998
104 1 0.341144 0.968676 15.0059
105 1 1.32078 0.816657 14.8657
106 1 2.08811 1.16901 14.3752
97 1 -2.37711 1.22373 14.1254
101 1 0.234272 1.74309 13.7362
103 1 0.904981 1.84644 14.9913
102 1 0.796897 2.41845 14.1003
ITEM: TIMESTEP
800
ITEM: NUMBER OF ATOMS
400
ITEM: BOX BOUNDS ff ff ff
-5.0000000000000000e+01 5.0000000000000000e+01
-5.0000000000000000e+01 5.0000000000000000e+01
-5.0000000000000000e+01 5.0000000000000000e+01
ITEM: ATOMS id type x y z
316 2 -0.669837 -2.25142 -15.1863
317 2 -1.40757 -1.86025 -15.6726
318 2 -2.15921 -1.40451 -15.2142
319 2 -1.99597 -0.774006 -14.5057
315 2 0.140141 -1.68945 -15.0256
314 2 -0.684889 -1.67111 -14.418
312 2 -0.0488906 0.0644012 -14.6174
313 2 -0.386869 -0.746646 -14.1856
295 2 0.779785 -0.589159 -15.0528
296 2 1.60259 -0.0253503 -15.2216
310 2 -0.740565 0.523843 -15.2609
311 2 -0.875557 0.47337 -14.2478
308 2 -0.795052 1.58318 -15.0892
307 2 -0.138979 2.05908 -14.436
309 2 -1.60361 1.06115 -14.9436
321 2 -1.54684 -0.933436 -13.3885
323 2 -0.34864 -1.49946 -12.1879
320 2 -2.50157 -0.988138 -13.6322
322 2 -0.660954 -0.941144 -12.9212
293 2 1.18562 -0.519542 -13.2725
294 2 0.91009 -1.0039 -14.1035
298 2 1.74262 0.357015 -13.5152
297 2 2.11632 0.475166 -14.4296
179 1 -2.45133 0.470023 -12.778
181 1 -1.204 -0.0173261 -12.4657
178 1 -1.77531 0.539973 -13.5242
175 1 -1.70455 1.62089 -12.4974
177 1 -1.09679 0.915211 -12.902
176 1 -0.904216 1.85798 -13.0531
299 2 0.767099 0.603676 -13.4024
300 2 0.685612 1.02034 -12.5145
303 2 2.00525 2.57113 -12.8861
306 2 0.428213 2.48555 -13.803
304 2 2.26454 2.05459 -13.7558
305 2 1.38975 2.64256 -13.6477
301 2 1.08743 1.89422 -12.7362
324 2 0.152536 -2.40262 -11.8041
325 2 1.03002 -2.50207 -12.3743
326 2 1.09595 -2.91584 -11.4164
180 1 -2.07158 -0.382676 -12.6521
172 1 -1.63655 -0.717514 -11.5753
292 2 1.24088 -0.543412 -12.2344
289 2 2.37093 -0.025713 -10.8438
173 1 -2.15004 0.150803 -11.4304
182 1 -0.516931 0.567768 -12.0569
282 2 -0.0641858 1.7004 -10.2686
184 1 -0.445252 0.218529 -10.5966
291 2 1.94509 0.25214 -12.1484
183 1 0.196987 0.459076 -11.3628
290 2 2.70818 0.538318 -11.5371
174 1 -1.59165 0.833213 -11.8786
302 2 1.23053 2.73424 -12.3107
284 2 1.3504 2.47719 -11.0497
168 1 -0.694309 -2.25463 -10.7498
166 1 -1.41973 -2.0673 -9.78991
167 1 -0.830271 -2.88424 -10.0146
328 2 0.949833 -2.94902 -10.2478
327 2 1.29486 -2.20466 -10.801
171 1 -1.34894 -0.107711 -10.8322
169 1 -0.612666 -1.50619 -10.1723
170 1 -0.782648 -0.933614 -10.9497
164 1 -1.23139 -0.963425 -9.0819
186 1 -0.000770266 -0.191013 -9.31657
185 1 0.30226 -0.332971 -10.3066
288 2 1.83215 0.0329507 -9.99892
276 2 -2.30386 2.14059 -10.5198
275 2 -2.89893 1.29148 -10.3811
283 2 0.437105 2.08483 -11.0814
286 2 1.45067 1.20021 -9.85298
285 2 1.0252 1.96944 -10.2367
287 2 1.94246 0.620926 -9.20068
277 2 -1.54782 2.72181 -10.0784
281 2 -0.233416 2.6615 -10.5286
280 2 -0.132919 2.88991 -9.6144
12 1 -0.990983 -1.92499 -8.28541
165 1 -1.95811 -1.12216 -9.78476
11 1 -1.37641 -2.78581 -8.3007
329 2 0.908654 -2.59133 -9.29498
330 2 0.32936 -2.29034 -8.51702
30 1 1.68865 -2.14673 -8.09496
13 1 -1.75479 -1.76167 -7.69298
163 1 -0.348847 -0.979419 -8.62361
162 1 0.420843 -0.964926 -7.86873
29 1 2.01877 -1.33717 -8.60862
28 1 2.23935 -0.397423 -8.51825
274 2 -1.94556 1.03885 -10.0663
273 2 -1.84196 0.896217 -9.05997
188 1 0.678804 1.31762 -9.14138
272 2 -1.79489 1.18671 -8.09012
189 1 -0.0106073 1.72188 -8.49775
187 1 0.278883 0.657051 -9.7377
161 1 0.890927 -0.37484 -8.48926
160 1 1.38154 0.461233 -8.25941
278 2 -1.1177 2.66523 -9.20258
279 2 -0.831449 3.52746 -9.71613
10 1 -1.23934 -2.90921 -7.33817
9 1 -1.53745 -2.88556 -6.37435
331 2 -0.173309 -2.6435 -7.73649
31 1 1.58452 -2.19014 -7.06622
332 2 -0.344967 -2.51397 -6.73893
16 1 -1.5897 -0.718572 -6.93485
15 1 -1.1841 -0.766721 -7.79577
14 1 -0.968742 -1.57406 -7.20172
25 1 1.61896 -1.02443 -6.99956
26 1 2.42669 -0.693923 -7.43739
24 1 0.633572 -0.951113 -6.78883
32 1 1.65395 -1.93222 -6.13472
27 1 3.09069 -0.177087 -8.035
190 1 0.231051 2.4559 -7.85675
270 2 -1.83765 1.87024 -6.28611
159 1 0.915238 1.31231 -8.06885
158 1 0.572891 0.910825 -7.23268
271 2 -1.93061 1.61935 -7.21251
191 1 0.479037 2.11739 -6.96162
192 1 1.4171 2.14453 -6.66349
7 1 -0.810514 -2.42612 -4.60461
8 1 -1.19817 -2.85901 -5.43231
333 2 0.560461 -2.57302 -6.32024
334 2 0.555888 -2.20706 -5.41353
17 1 -1.56034 -1.26375 -6.09187
18 1 -1.34251 -1.48095 -5.11826
19 1 -1.62266 -0.529841 -5.29936
22 1 -0.0532403 -0.454126 -5.59055
20 1 -0.78941 -0.426962 -4.7483
33 1 1.88101 -1.26194 -5.42931
23 1 0.832733 -0.839012 -5.8074
34 1 2.03621 -0.443633 -5.9226
35 1 2.95623 -0.379516 -6.19508
268 2 -2.06635 1.08114 -5.48583
269 2 -1.16014 1.22963 -5.80608
156 1 0.905553 0.634758 -5.6462
157 1 0.188368 0.655529 -6.37764
155 1 1.6787 1.21926 -5.57144
36 1 2.74285 0.272311 -5.4403
195 1 0.207966 2.94887 -5.34372
196 1 -0.472803 2.32707 -4.87961
193 1 0.77935 1.54005 -6.15257
194 1 -0.0525358 2.17021 -5.97432
197 1 0.347202 1.70853 -4.84581
6 1 -1.49816 -2.83931 -4.05929
5 1 -0.84531 -2.78677 -3.3521
4 1 -0.604629 -1.81486 -3.11847
335 2 0.787573 -2.25158 -4.49924
336 2 1.09907 -1.89894 -3.64956
337 2 0.27895 -2.37253 -3.35303
264 2 -2.03706 -0.491758 -3.30462
3 1 -1.19248 -1.11386 -3.48541
21 1 0.163585 -0.62733 -4.62939
38 1 2.6045 -0.764677 -4.31605
37 1 2.4988 0.254253 -4.50342
39 1 3.01224 -0.762209 -3.41803
267 2 -1.63213 1.63341 -4.709
266 2 -1.71043 0.746886 -4.2584
265 2 -1.3902 -0.0152162 -3.77632
152 1 0.104124 1.07148 -3.65576
153 1 0.649754 0.663434 -4.33817
154 1 1.55836 0.771603 -4.71001
198 1 1.00947 1.70825 -4.07386
53 1 -0.735038 -2.64555 -1.57956
339 2 0.703665 -1.91109 -1.86996
338 2 0.363334 -1.58761 -2.75238
263 2 -2.41714 0.0536797 -2.51059
52 1 -0.307917 -1.76447 -1.71257
50 1 -0.137529 -0.158527 -2.0509
2 1 -0.486659 -0.859409 -2.8212
41 1 1.88397 -0.294101 -2.16801
262 2 -2.67685 0.395728 -1.66736
261 2 -2.57342 1.37726 -1.45249
150 1 -0.97098 1.17175 -3.01827
200 1 0.487981 0.605392 -2.49297
1 1 0.405018 -0.375408 -2.8671
43 1 2.52187 1.51991 -2.63292
40 1 2.0835 -0.83188 -3.01017
42 1 2.50297 0.476601 -2.26515
149 1 -1.5052 1.20083 -2.19781
151 1 -0.0607965 1.39746 -2.69268
147 1 -1.06287 2.6264 -1.09746
199 1 1.04807 0.943498 -3.34997
44 1 2.08008 2.44755 -2.75046
57 1 -1.89908 -1.99144 -0.599415
56 1 -1.54919 -2.90727 -0.697599
55 1 -0.826753 -2.29741 -0.338015
54 1 -0.241302 -2.97398 -0.798362
341 2 1.25854 -1.09832 -0.990142
340 2 1.39012 -2.02932 -1.21607
58 1 -1.31939 -1.19719 -0.534958
51 1 0.04924 -0.937494 -1.34672
59 1 -0.556948 -0.561179 -0.634133
342 2 0.778545 -1.561 -0.20716
141 1 1.3243 0.0749959 -0.173313
260 2 -1.80673 0.886144 -1.05154
259 2 -1.9012 0.497573 -0.0875131
47 1 0.368592 1.51084 -1.44676
48 1 0.264182 0.875638 -0.63169
46 1 1.04723 2.2384 -1.48643
49 1 0.490272 0.156255 -1.37829
142 1 1.84386 0.998964 -0.0748506
148 1 -1.57085 1.87716 -1.43456
146 1 -0.0853936 2.51683 -0.988041
45 1 2.05552 2.30409 -1.74429
144 1 0.942438 2.50245 0.383202
145 1 0.42111 1.9898 -0.289784
143 1 1.57247 1.94606 -0.19989
211 2 -0.700444 -1.89559 1.40462
210 2 -1.03593 -2.46346 0.689971
343 2 0.148972 -0.799534 0.149335
258 2 -1.80164 -0.481399 0.122732
209 2 -1.53384 -1.59944 0.841386
257 2 -1.53128 0.0647334 0.944182
140 1 0.818341 0.807552 0.255388
344 2 -0.216148 -0.84491 1.05709
345 2 0.294057 -0.418987 1.77059
138 1 1.50128 0.100174 1.4958
254 2 -2.31826 0.753937 1.4745
62 1 -1.35057 1.84277 0.650407
60 1 -0.85221 0.138473 0.000939381
61 1 -1.05717 1.08894 0.0964234
139 1 0.809836 0.832459 1.32307
65 1 -0.407046 1.26989 1.94401
137 1 2.21371 0.816295 1.63326
63 1 -0.900898 2.6498 0.928712
64 1 -0.168179 2.14547 1.37251
208 2 -1.5736 -1.89147 1.78972
206 2 -0.670439 -1.31406 2.64301
213 2 1.01489 -2.23942 1.7985
212 2 0.261184 -1.64015 1.58544
214 2 1.55375 -1.46248 1.27325
255 2 -1.91204 0.0114673 2.04452
207 2 -1.60715 -1.05379 2.32408
348 2 -0.878775 -0.115721 3.29228
217 2 0.912455 -1.40505 2.92612
216 2 1.47245 -1.01039 2.20366
346 2 0.279254 0.49612 2.11733
215 2 2.33753 -1.49815 1.91543
252 2 -2.17209 0.961487 3.31925
253 2 -2.60144 0.81227 2.42043
256 2 -0.973801 0.108256 1.7796
347 2 -0.1067 -0.23574 2.72786
66 1 0.347717 1.8618 2.35136
136 1 1.96035 1.63431 2.1315
135 1 2.31768 1.03323 2.81561
67 1 0.99249 2.33031 3.00456
68 1 1.39171 2.81436 3.77241
205 2 -0.530844 -1.89488 3.43023
204 2 -0.660124 -2.91758 3.36864
203 2 -1.33412 -2.61541 4.05258
202 2 -1.96186 -1.95891 4.4409
350 2 -0.716588 -0.742234 4.27819
218 2 1.40264 -1.81591 3.75623
227 2 0.145733 -1.25903 3.92377
349 2 -0.184331 0.041841 3.98279
219 2 2.20279 -1.34624 4.05224
220 2 1.54764 -0.610507 3.8616
251 2 -1.95004 0.0357739 3.31659
250 2 -2.27587 0.0448401 4.23028
249 2 -1.38272 0.523147 4.13275
133 1 1.03295 1.2257 3.10614
132 1 0.219214 1.59325 3.50921
134 1 1.84727 0.757772 3.61713
221 2 1.97714 0.00767801 4.48957
130 1 -0.463272 2.50969 4.80256
131 1 -0.441857 2.22249 3.86692
129 1 -0.176506 1.60131 4.95599
69 1 0.619662 2.50621 4.3608
228 2 0.271201 -2.22918 4.08853
229 2 0.852137 -1.96128 4.83813
230 2 0.810008 -1.50359 5.70955
201 2 -2.14944 -0.953406 4.42673
399 2 -1.33958 -1.06346 6.02672
400 2 -1.37936 -0.618507 5.10639
351 2 -0.37243 -0.948409 5.20136
226 2 0.801785 -0.856225 4.47913
352 2 0.184566 -0.626635 5.97824
223 2 2.0851 0.323868 5.94473
231 2 1.66936 -1.33982 5.25927
246 2 -1.40307 0.893367 6.1451
224 2 1.25483 0.716363 5.44231
225 2 1.08147 -0.224577 5.23334
222 2 2.58121 0.556817 5.10412
247 2 -1.10003 1.54811 5.51452
248 2 -1.05472 0.642784 5.08458
128 1 0.220835 1.01979 5.60877
70 1 1.34571 2.42646 4.96523
71 1 0.598701 1.99142 5.50448
398 2 -1.11026 -1.77092 6.72701
396 2 -0.983841 -2.61414 8.62467
397 2 -0.949734 -2.2693 7.59497
237 2 0.0264909 -2.1883 6.98423
355 2 -1.97666 -1.12439 7.00755
354 2 -1.13443 -0.577918 7.27109
353 2 -0.465448 -0.164638 6.61448
236 2 0.989799 -1.86993 7.27711
232 2 1.97666 -1.18026 6.17864
234 2 1.73586 -0.147185 7.39894
235 2 1.42997 -1.0162 7.7716
358 2 -2.7661 0.561173 8.21933
245 2 -2.19541 1.02769 6.69203
244 2 -1.41906 1.58383 6.9617
127 1 -0.472593 1.3544 6.30995
73 1 0.763547 1.10554 7.19372
233 2 1.38418 -0.464132 6.52639
75 1 1.96226 1.20959 8.061
243 2 -1.20002 1.67797 7.92467
72 1 0.965944 1.67825 6.3682
126 1 -0.0547809 1.92019 6.98539
125 1 0.15034 2.61829 7.73968
395 2 -1.74245 -1.94423 8.57569
238 2 -0.148613 -1.6918 7.83516
367 2 -0.252333 -2.13798 9.92312
357 2 -2.70378 -0.384044 7.94824
356 2 -2.16741 -1.26668 7.95084
239 2 -0.102142 -0.722339 7.95409
81 1 1.46977 -0.286347 8.93335
78 1 2.57941 -0.835002 9.12414
80 1 1.38007 -1.29294 8.83701
359 2 -1.93442 0.315282 8.72634
360 2 -2.13699 -0.207798 9.55845
241 2 -0.311449 0.587629 8.4921
240 2 0.00835264 0.21957 7.55036
242 2 -0.56285 1.46978 8.685
74 1 1.75539 0.958935 7.03639
123 1 0.422753 1.49807 9.11017
76 1 2.55501 0.511289 7.73859
77 1 2.68367 -0.354633 8.25639
121 1 0.794027 2.00496 10.1018
124 1 0.578876 1.80064 8.1693
122 1 1.34937 1.45921 9.46393
394 2 -1.65119 -1.40612 9.43452
393 2 -1.24282 -1.91549 10.2009
392 2 -1.14872 -2.50825 11.0074
368 2 0.498469 -1.53885 9.72698
369 2 1.26855 -1.95169 10.2292
365 2 0.11777 -0.567018 9.345
366 2 -0.48487 -1.2281 9.75785
114 1 -0.305195 -0.506618 10.8521
83 1 0.884545 -0.509567 10.7406
82 1 1.01148 -0.102167 9.82084
79 1 1.86563 -1.15499 9.71492
362 2 -2.01861 -0.209031 10.6039
361 2 -2.84241 0.199353 10.2053
364 2 -0.686789 -0.00623313 9.32019
363 2 -1.30102 -0.414499 9.92587
120 1 -0.130874 1.65332 9.96246
116 1 -1.53018 1.01374 10.8254
86 1 1.02577 0.92635 10.7304
85 1 1.7638 0.535259 10.1995
119 1 -0.464882 2.24765 10.6376
118 1 -1.25363 2.32132 10.0412
117 1 -1.75886 1.96456 10.7877
391 2 -1.27868 -2.5105 11.9487
390 2 -1.13383 -1.56278 11.6675
371 2 1.36657 -2.24869 11.4311
370 2 1.94573 -1.64644 10.8891
389 2 -1.78652 -1.69212 12.4399
113 1 0.18102 -1.2989 11.2006
112 1 0.476893 -0.58119 11.8747
111 1 1.3227 -0.713818 12.3087
115 1 -0.973378 0.212045 10.712
89 1 0.515758 1.18284 11.7745
84 1 1.50047 0.159829 11.1269
110 1 1.70766 0.195325 12.5081
88 1 0.816684 2.05568 12.0368
87 1 1.13806 1.86587 11.1313
373 2 0.138168 -2.1418 12.831
372 2 0.875317 -2.38849 12.249
387 2 -2.1902 -1.40798 13.4049
386 2 -2.63708 -0.921368 14.1934
388 2 -2.63732 -1.10566 12.5639
374 2 -0.380426 -1.70354 13.5099
91 1 -0.390134 0.728137 12.9604
375 2 0.447815 -1.40985 13.9709
379 2 2.13313 -0.930502 14.4347
96 1 -2.88226 0.645246 13.5672
94 1 -1.76346 -0.285567 13.1543
95 1 -2.15257 0.637878 12.8949
93 1 -1.38861 0.210647 13.9943
92 1 -0.585542 0.737246 13.9555
100 1 -0.662535 1.92285 14.0767
90 1 0.419787 1.19071 12.7887
108 1 2.79942 1.08688 13.6773
109 1 2.45717 0.806096 12.806
107 1 2.37514 0.234403 13.8124
383 2 -0.462646 -1.23606 15.6933
382 2 0.43299 -1.64481 15.5443
381 2 1.14331 -1.72679 14.8654
380 2 1.74326 -1.72788 14.0299
385 2 -1.76718 -0.805303 14.6137
384 2 -0.81057 -1.17334 14.794
376 2 -0.108429 -0.5858 14.2332
378 2 1.70327 -0.248638 14.9974
98 1 -1.8698 1.78093 14.4641
99 1 -0.983878 1.9808 15.002
377 2 0.848036 -0.347808 14.4525
104 1 0.301512 1.08241 14.9412
105 1 1.1101 0.703143 14.6379
106 1 2.09487 0.900486 14.4608
97 1 -2.58546 1.04724 14.4243
101 1 0.224837 1.96451 13.6449
103 1 0.614844 2.1042 14.8638
102 1 1.06324 2.39072 14.0298
ITEM: TIMESTEP
900
ITEM: NUMBER OF ATOMS
400
ITEM: BOX BOUNDS ff ff ff
-5.0000000000000000e+01 5.0000000000000000e+01
-5.0000000000000000e+01 5.0000000000000000e+01
-5.0000000000000000e+01 5.0000000000000000e+01
ITEM: ATOMS id type x y z
316 2 -0.668726 -2.3877 -15.3027
317 2 -1.37874 -1.7778 -15.705
318 2 -2.22209 -1.56029 -15.2182
319 2 -1.92392 -1.002 -14.422
315 2 0.114916 -1.85921 -15.0787
314 2 -0.347187 -1.51483 -14.2446
312 2 0.0438388 0.167956 -14.1704
313 2 -0.626878 -0.578636 -14.0384
295 2 0.870124 -0.659563 -15.1423
296 2 1.61779 0.136919 -15.1561
310 2 -1.20263 0.179864 -15.1096
311 2 -0.869607 0.480453 -14.2027
308 2 -0.719612 1.30064 -15
307 2 -0.0175122 1.9486 -14.7021
309 2 -1.69109 1.04644 -15.0372
321 2 -1.49196 -0.716767 -13.2321
323 2 -0.632416 -1.33556 -11.9605
320 2 -2.323 -1.24161 -13.5186
322 2 -0.7867 -1.36235 -12.921
293 2 1.55611 -0.398712 -13.2832
294 2 1.27905 -0.529827 -14.2235
298 2 1.80115 0.672658 -13.5091
297 2 2.19406 0.663752 -14.4742
179 1 -2.54136 0.647949 -12.78
181 1 -1.23453 -0.00392193 -12.5813
178 1 -1.84854 0.694385 -13.5208
175 1 -1.85456 1.88663 -12.403
177 1 -0.923739 0.842928 -13.1712
176 1 -1.23139 1.80184 -13.2048
299 2 0.802365 0.719721 -13.4383
300 2 0.889058 1.13734 -12.5104
303 2 1.91388 2.44549 -12.7943
306 2 0.549511 2.54505 -14.1069
304 2 2.02953 1.91074 -13.6951
305 2 1.53607 2.56218 -14.3096
301 2 0.876266 2.02349 -12.9833
324 2 -0.0584572 -2.15853 -12.1225
325 2 0.887295 -2.33857 -12.2834
326 2 0.61152 -2.96759 -11.4994
180 1 -2.16234 -0.224269 -12.6972
172 1 -1.75448 -0.701409 -11.2915
292 2 1.29228 -0.370273 -12.2927
289 2 2.17805 -0.313143 -10.6807
173 1 -1.94523 0.239241 -11.6579
182 1 -0.547575 0.347057 -11.9453
282 2 -0.192451 1.54892 -10.3911
184 1 -0.181616 0.149939 -10.5784
291 2 1.62568 0.44947 -11.8212
183 1 0.323306 0.509959 -11.3743
290 2 2.55939 0.296796 -11.4044
174 1 -1.55746 1.06709 -11.9248
302 2 1.15698 2.50445 -12.1836
284 2 1.38696 1.8014 -10.9178
168 1 -0.699566 -1.99629 -11.0387
166 1 -1.76811 -2.05322 -9.90057
167 1 -0.973349 -2.6041 -10.2829
328 2 0.879166 -2.84535 -10.2419
327 2 1.29729 -2.40543 -11.0239
171 1 -1.15914 -0.0578888 -10.8729
169 1 -0.631552 -1.51956 -10.1786
170 1 -0.565911 -0.82788 -10.8807
164 1 -1.32276 -0.564669 -9.19432
186 1 0.573311 -0.19909 -9.27636
185 1 0.645533 -0.335588 -10.2829
288 2 2.15424 -0.126404 -9.67309
276 2 -2.44586 2.26166 -10.4372
275 2 -2.71691 1.25826 -10.4125
283 2 0.390185 1.89112 -11.1424
286 2 1.83843 1.23349 -10.0237
285 2 1.0547 1.83176 -9.97858
287 2 1.73203 0.670645 -9.16783
277 2 -1.65663 2.88407 -10.1943
281 2 -0.314761 2.50634 -10.3908
280 2 0.0333003 3.14645 -9.79994
12 1 -0.806955 -1.96231 -8.17734
165 1 -1.93062 -1.04324 -9.81789
11 1 -1.06994 -2.90102 -8.23898
329 2 0.7346 -2.52423 -9.29923
330 2 0.696597 -2.33105 -8.37557
30 1 1.92836 -2.25634 -7.87515
13 1 -1.64023 -1.69359 -7.77874
163 1 -0.384584 -0.616553 -8.72507
162 1 0.39754 -1.01896 -8.34271
29 1 1.62073 -1.40934 -8.42233
28 1 2.10507 -0.603769 -8.56769
274 2 -2.19099 0.771848 -9.74165
273 2 -1.76451 1.32179 -9.04245
188 1 0.707071 1.41373 -9.03776
272 2 -2.15242 1.22319 -8.14149
189 1 -0.10847 1.74268 -8.54368
187 1 0.623479 0.686573 -9.76007
161 1 1.08724 -0.333005 -8.35903
160 1 1.28197 0.594996 -8.10735
278 2 -1.48153 2.71648 -9.23523
279 2 -0.969515 3.45869 -9.80155
10 1 -1.40694 -2.58436 -7.37656
9 1 -1.35997 -2.81215 -6.36507
331 2 0.0181226 -2.446 -7.65778
31 1 1.60087 -2.02579 -6.93522
332 2 -0.322677 -2.683 -6.76356
16 1 -1.68426 -1.08757 -6.90129
15 1 -1.24614 -0.701458 -7.72041
14 1 -0.814145 -1.46117 -7.30306
25 1 2.08962 -1.09625 -6.57376
26 1 2.54255 -0.975899 -7.41716
24 1 1.18616 -1.0168 -6.80503
32 1 1.72707 -1.88337 -5.96361
27 1 2.95023 -0.348085 -8.19202
190 1 0.512226 2.37711 -7.99871
270 2 -2.07366 2.13172 -6.34879
159 1 0.819287 1.45222 -7.9332
158 1 0.419963 0.844572 -7.34037
271 2 -2.14133 1.58356 -7.13836
191 1 0.328602 2.15654 -7.01747
192 1 1.18665 2.40413 -6.70317
7 1 -0.717904 -2.9292 -4.49664
8 1 -1.12902 -2.81378 -5.35819
333 2 0.319331 -2.43815 -5.97343
334 2 0.856249 -1.85149 -5.34425
17 1 -1.65547 -1.30777 -5.92876
18 1 -1.57171 -1.54217 -5.00458
19 1 -1.59999 -0.575411 -5.18992
22 1 -0.155551 -0.390149 -5.72649
20 1 -0.795292 -0.282054 -4.68601
33 1 2.28223 -1.31617 -5.43833
23 1 0.654548 -0.995073 -5.93581
34 1 2.0107 -0.343945 -5.66589
35 1 2.8379 -0.190821 -6.20292
268 2 -2.17017 1.06939 -5.62715
269 2 -1.46145 1.36567 -6.23872
156 1 0.806968 0.708023 -5.68138
157 1 0.12396 0.556332 -6.37394
155 1 1.66451 1.02035 -5.13669
36 1 2.93004 0.367732 -5.31232
195 1 0.0798374 3.09337 -5.54881
196 1 -0.257972 2.60333 -4.66088
193 1 1.09095 1.86853 -5.89503
194 1 0.165157 2.1392 -5.72481
197 1 0.507637 1.93506 -4.66542
6 1 -1.59094 -2.79354 -4.03526
5 1 -0.867736 -2.90823 -3.31585
4 1 -0.752109 -1.91986 -3.03772
335 2 1.07065 -2.04281 -4.40509
336 2 1.15846 -1.97687 -3.41545
337 2 0.309942 -2.49522 -3.12797
264 2 -2.15529 -0.657538 -3.3795
3 1 -1.07454 -1.12752 -3.54977
21 1 0.136835 -0.598771 -4.83943
38 1 2.91312 -0.694722 -4.3853
37 1 2.23873 0.066895 -4.62266
39 1 3.05625 -0.582179 -3.44979
267 2 -1.69087 1.56648 -4.94127
266 2 -1.42237 0.855933 -4.30742
265 2 -1.69825 0.12285 -3.69661
152 1 -0.117235 0.884878 -3.65289
153 1 0.634799 0.910306 -4.36874
154 1 1.55199 1.08887 -4.18872
198 1 0.66547 1.76253 -3.70374
53 1 -0.736831 -2.77098 -1.68805
339 2 1.17244 -1.58078 -1.91695
338 2 0.324363 -1.7724 -2.46605
263 2 -2.26891 -0.247678 -2.42976
52 1 -0.147412 -1.95124 -1.59936
50 1 -0.10458 -0.188438 -1.95515
2 1 -0.472492 -0.764283 -2.83989
41 1 1.85881 -0.296341 -2.23034
262 2 -2.13245 0.329118 -1.57627
261 2 -2.55388 1.23593 -1.35499
150 1 -0.687807 0.670982 -2.58011
200 1 0.42645 0.665023 -2.46577
1 1 0.370729 -0.274163 -2.84675
43 1 2.39781 1.38034 -2.49088
40 1 2.19926 -0.160289 -3.18128
42 1 2.39388 0.497337 -2.15575
149 1 -1.45115 1.22592 -2.28539
151 1 -0.0612124 1.40665 -2.83033
147 1 -1.08525 2.64914 -1.11709
199 1 0.87636 0.806735 -3.34025
44 1 2.13983 2.29526 -2.63664
57 1 -1.99111 -1.85133 -1.00917
56 1 -1.43214 -2.61035 -0.713082
55 1 -0.591918 -2.22634 -0.493337
54 1 -0.0115959 -2.89578 -1.05103
341 2 1.34209 -1.36819 -0.864459
340 2 1.37486 -2.28974 -1.23982
58 1 -1.36575 -1.06998 -0.909017
51 1 0.0774031 -1.00048 -1.42613
59 1 -0.641918 -0.639345 -0.373106
342 2 0.63291 -1.85661 -0.416669
141 1 1.37994 0.0243201 -0.281138
260 2 -1.95498 1.18976 -0.614298
259 2 -2.00557 0.385818 -0.14603
47 1 0.383642 1.85878 -1.18233
48 1 0.0279772 0.983284 -0.609036
46 1 0.986288 2.38274 -1.72758
49 1 0.289166 0.17105 -1.11419
142 1 1.65453 0.994695 -0.411853
148 1 -1.53122 2.14637 -1.89592
146 1 -0.14179 2.86384 -1.00002
45 1 1.98786 2.63177 -1.71258
144 1 0.942021 2.48519 0.247827
145 1 -0.0334574 2.48082 -0.0437999
143 1 1.15242 1.80427 -0.439564
211 2 -0.543251 -1.96375 0.97238
210 2 -1.15402 -2.34596 0.308035
343 2 0.184771 -1.31212 0.279959
258 2 -1.91266 -0.513001 0.177567
209 2 -1.91145 -2.01957 0.924427
257 2 -1.29996 -0.117063 0.884724
140 1 0.641568 0.378692 0.212978
344 2 0.142371 -0.613034 0.990111
345 2 0.144604 -0.484162 1.9685
138 1 1.61903 0.310454 1.27924
254 2 -2.57805 0.641413 1.69642
62 1 -1.42126 1.69167 0.590049
60 1 -1.04347 0.256147 -0.245668
61 1 -0.747238 1.09542 0.175173
139 1 0.635448 0.297866 1.20734
65 1 -0.46545 1.47804 1.85306
137 1 2.32933 0.877606 1.68792
63 1 -0.707804 2.38477 0.75147
64 1 0.103744 2.15079 1.34297
208 2 -1.38079 -1.82596 1.81591
206 2 -0.886413 -1.1833 2.84791
213 2 1.12729 -2.05639 1.97432
212 2 0.185426 -1.90172 1.66169
214 2 1.6586 -1.89519 1.15681
255 2 -1.9011 0.106778 2.13613
207 2 -1.77925 -1.07627 2.34247
348 2 -0.680518 -0.00609033 3.05533
217 2 1.30496 -1.52773 2.94066
216 2 1.748 -1.19476 2.14452
346 2 0.146205 0.343612 2.50634
215 2 2.11789 -2.08947 2.0808
252 2 -2.25179 0.797279 3.28668
253 2 -2.35601 1.301 2.43598
256 2 -1.0392 0.342824 1.76598
347 2 0.145009 -0.557379 2.94544
66 1 0.388094 1.66688 2.23692
136 1 1.72634 1.60527 2.13575
135 1 2.22227 1.22631 2.90861
67 1 0.698647 2.3105 2.91339
68 1 1.00199 2.87594 3.69267
205 2 -0.85501 -2.14039 3.1939
204 2 -1.07089 -3.04727 3.4044
203 2 -1.38883 -2.70672 4.29839
202 2 -2.13911 -2.00775 4.41539
350 2 -0.610536 -0.515041 4.3114
218 2 1.60461 -2.00506 3.75068
227 2 0.650778 -1.17139 3.72441
349 2 -0.208641 0.269798 3.85509
219 2 2.12031 -1.15116 3.99472
220 2 1.56192 -0.299146 3.89997
251 2 -1.92037 -0.128906 3.14224
250 2 -2.23869 -0.135665 4.08276
249 2 -1.4052 0.553048 4.07941
133 1 0.69562 1.1258 3.18025
132 1 -0.110198 1.76168 3.20519
134 1 1.57318 1.34703 3.63075
221 2 2.02777 0.514871 4.2754
130 1 -0.800642 2.33021 4.78476
131 1 -0.474329 2.45649 3.85364
129 1 -0.252888 1.65679 5.21783
69 1 0.55731 2.95819 4.57411
228 2 0.124288 -1.99065 3.82945
229 2 0.773987 -2.02906 4.53694
230 2 0.645823 -1.56855 5.42733
201 2 -2.3303 -1.02212 4.54251
399 2 -1.81405 -1.35585 5.98288
400 2 -1.59269 -0.858595 5.14321
351 2 -0.582685 -0.701136 5.31467
226 2 0.556774 -0.761792 4.60989
352 2 0.128328 -0.421326 6.01246
223 2 1.86375 0.365781 5.78794
231 2 1.64503 -1.54253 5.39995
246 2 -1.5267 0.902175 6.17856
224 2 1.07742 0.903568 5.38416
225 2 1.06023 -0.0952422 5.16631
222 2 2.1989 1.02479 5.15594
247 2 -1.32939 1.45634 5.29662
248 2 -0.861053 0.672216 4.95267
128 1 -0.0862112 0.890399 5.90265
70 1 1.43039 2.52767 4.87559
71 1 0.756895 2.16061 5.55283
398 2 -1.30439 -1.87537 6.66691
396 2 -0.803552 -2.28465 8.37264
397 2 -1.17082 -2.42755 7.48346
237 2 0.147501 -2.37416 7.15702
355 2 -2.10899 -1.01138 7.18819
354 2 -1.31196 -0.461167 7.2971
353 2 -0.716698 -0.117747 6.51682
236 2 0.843382 -1.69981 7.32285
232 2 1.96026 -1.20681 6.27152
234 2 1.49513 -0.00906685 7.354
235 2 1.15173 -0.860625 7.73576
358 2 -2.76234 0.283289 8.22129
245 2 -2.24048 1.13373 6.78398
244 2 -1.57238 1.77775 7.12277
127 1 -0.397586 1.79183 6.25353
73 1 0.946176 0.940369 6.99895
233 2 1.16409 -0.617523 6.68211
75 1 2.39694 1.3792 8.06804
243 2 -1.28333 1.3623 8.05337
72 1 0.789186 1.71295 6.47127
126 1 -0.0754819 2.39786 6.99551
125 1 0.0634241 2.02667 7.91067
395 2 -1.67634 -1.75503 8.4926
238 2 -0.106796 -1.68235 7.84206
367 2 -0.0985945 -2.04615 10.097
357 2 -3.08712 -0.678545 8.07144
356 2 -2.11596 -0.75945 8.11168
239 2 -0.230466 -0.65249 7.70738
81 1 1.26489 -0.421761 9.04061
78 1 2.30853 -0.655608 9.18543
80 1 1.60703 -1.37378 8.72103
359 2 -1.84637 0.231851 8.50273
360 2 -2.29985 -0.248596 9.27471
241 2 -0.385204 0.792564 8.22261
240 2 0.291326 0.152621 7.74669
242 2 -0.576677 1.6795 8.68321
74 1 1.75573 1.42686 7.29956
123 1 0.575086 2.16408 9.02014
76 1 2.47397 0.450777 7.71772
77 1 2.22598 -0.36688 8.21416
121 1 0.727192 2.12119 9.96449
124 1 1.07532 2.14252 8.11362
122 1 1.28159 1.5237 9.37841
394 2 -1.80124 -1.66688 9.4444
393 2 -1.34157 -2.13736 10.1625
392 2 -0.98504 -2.56422 11.0199
368 2 0.696129 -1.66393 9.63935
369 2 1.3314 -1.97832 10.2777
365 2 0.245095 -0.417523 9.3051
366 2 -0.363198 -1.283 9.46345
114 1 -0.56711 -0.70677 10.699
83 1 1.132 -0.611422 10.8702
82 1 1.02182 -0.0728708 10.0027
79 1 1.57946 -1.11907 9.68233
362 2 -1.9799 -0.648304 10.7365
361 2 -2.74302 -0.276237 10.1744
364 2 -0.687793 -0.0817503 9.3035
363 2 -1.36859 -0.4298 9.959
120 1 -0.100581 1.57817 9.97319
116 1 -1.51661 1.00325 10.9974
86 1 1.22882 0.908628 10.471
85 1 2.20733 0.726377 10.5239
119 1 -0.717902 1.73866 10.7537
118 1 -1.25272 2.28682 10.0667
117 1 -1.76195 1.91367 10.8423
391 2 -0.965079 -2.42235 12.0119
390 2 -1.00225 -1.39617 11.9031
371 2 1.24065 -2.06166 11.515
370 2 1.99555 -1.80908 10.9713
389 2 -1.73859 -1.85724 12.4333
113 1 0.220986 -1.18431 11.0815
112 1 0.659789 -0.645598 11.7707
111 1 1.55981 -0.801315 12.1479
115 1 -1.00282 0.168804 10.7646
89 1 0.188489 1.37181 11.721
84 1 1.93375 -0.0290732 11.0529
110 1 1.98876 0.0735115 12.3849
88 1 0.984006 2.03734 11.5479
87 1 1.67032 1.45201 11.1769
373 2 0.251539 -2.31499 12.9721
372 2 1.07592 -2.49177 12.4341
387 2 -1.91179 -1.43177 13.4618
386 2 -2.4317 -0.82115 14.1584
388 2 -2.31033 -1.08663 12.6607
374 2 -0.266635 -2.20758 13.8294
91 1 -0.529777 0.944423 13.0815
375 2 0.244081 -1.36222 13.8963
379 2 1.88477 -0.977535 14.5606
96 1 -2.94609 1.01923 13.5124
94 1 -1.91291 -0.327858 13.3687
95 1 -2.20797 0.57419 13.0793
93 1 -1.4832 0.268805 14.0597
92 1 -0.509345 0.580721 14.0364
100 1 -0.748594 2.34376 13.9279
90 1 0.376427 1.25144 12.7715
108 1 2.80329 0.868018 13.4755
109 1 2.874 0.324751 12.6478
107 1 2.60871 0.279003 14.2196
383 2 -0.371436 -1.46035 15.6951
382 2 0.35139 -1.69572 15.0237
381 2 1.24625 -2.15996 15.0276
380 2 1.37513 -1.70859 14.1947
385 2 -1.64436 -0.766893 14.7602
384 2 -0.709504 -1.16562 14.8086
376 2 -0.126577 -0.3955 14.0139
378 2 1.52887 -0.186414 15.0028
98 1 -2.10187 1.69405 14.8785
99 1 -1.10932 1.93948 14.7661
377 2 0.743567 -0.558572 14.5318
104 1 0.44347 1.16799 15.0309
105 1 1.01244 0.582766 14.4597
106 1 1.82417 0.812536 13.8781
97 1 -2.40007 0.890552 14.3731
101 1 0.225846 2.1301 13.7563
103 1 0.322554 2.19879 14.9306
102 1 1.06165 2.33882 14.2829
ITEM: TIMESTEP
1000
ITEM: NUMBER OF ATOMS
400
ITEM: BOX BOUNDS ff ff ff
-5.0000000000000000e+01 5.0000000000000000e+01
-5.0000000000000000e+01 5.0000000000000000e+01
-5.0000000000000000e+01 5.0000000000000000e+01
ITEM: ATOMS id type x y z
316 2 -0.383598 -2.64318 -15.3652
317 2 -1.08341 -1.98081 -15.4068
315 2 -0.0607458 -1.79894 -15.0265
314 2 -0.436536 -1.61113 -14.141
318 2 -1.90472 -1.44485 -15.3378
319 2 -1.9418 -1.21623 -14.4117
313 2 -0.402903 -0.635561 -14.3656
295 2 0.980814 -0.896797 -14.9231
294 2 1.24146 -0.31873 -14.128
296 2 1.66166 -0.208202 -15.0124
309 2 -1.73393 1.12069 -15.1217
312 2 -0.0170919 0.306132 -14.4414
310 2 -1.49061 0.12005 -15.0006
311 2 -1.00079 0.322639 -14.183
308 2 -0.906442 1.25636 -14.6775
297 2 2.10689 0.427369 -14.3535
307 2 -0.238303 1.92039 -14.462
306 2 0.606051 2.41998 -14.3821
321 2 -1.86909 -1.18172 -12.9646
320 2 -2.57166 -1.01143 -13.6525
180 1 -2.05489 -0.0542 -12.7559
322 2 -0.936916 -1.23642 -13.1948
181 1 -1.06234 -0.286869 -12.6668
292 2 1.15433 -0.0591008 -12.6197
293 2 1.78261 -0.387847 -13.2767
179 1 -2.47663 0.783791 -12.8858
178 1 -1.83549 0.876446 -13.6213
177 1 -1.19072 0.865209 -12.8875
299 2 0.977343 0.775499 -13.1722
298 2 1.93917 0.808154 -13.4227
176 1 -1.16939 1.88109 -13.0435
305 2 1.49318 2.51946 -13.9182
301 2 0.803651 1.78913 -13.1093
303 2 1.61647 2.62957 -12.8396
304 2 2.10829 1.94794 -13.4069
168 1 -1.08257 -2.14866 -11.1381
324 2 0.0412512 -1.95911 -11.7316
325 2 0.867592 -2.28524 -12.1473
326 2 0.72872 -2.98762 -11.4733
327 2 1.25067 -2.23946 -11.0173
172 1 -1.76464 -0.72697 -11.0912
323 2 -0.642591 -1.53506 -12.2665
170 1 -0.526036 -0.848998 -11.0077
173 1 -1.74082 0.164397 -11.5696
182 1 -0.696151 0.419738 -11.9965
174 1 -1.43581 1.08705 -11.8383
300 2 1.27353 1.28305 -12.3827
183 1 0.174823 0.553061 -11.5555
291 2 1.82785 0.207844 -11.8281
290 2 2.44799 0.432497 -11.0776
175 1 -1.63601 1.98892 -12.2276
302 2 0.785196 2.36853 -12.299
283 2 0.407648 1.78885 -11.0311
166 1 -1.82607 -1.84578 -9.9547
167 1 -1.07017 -2.39935 -10.1878
169 1 -0.44577 -1.68309 -10.5403
328 2 0.906713 -2.66709 -10.1652
165 1 -1.74937 -0.850305 -10.1062
171 1 -1.13201 -0.0573452 -10.737
164 1 -1.02286 -0.806487 -9.4156
186 1 0.527004 -0.287835 -9.60795
185 1 0.652713 -0.475405 -10.5902
289 2 1.83676 -0.234605 -10.6961
288 2 1.93055 -0.225414 -9.73683
275 2 -2.75988 1.31121 -10.5116
274 2 -2.41253 0.791853 -9.72006
184 1 -0.0971967 0.176936 -10.6398
187 1 0.541464 0.659687 -9.84628
286 2 2.14249 1.49454 -9.88042
276 2 -2.81408 2.34593 -10.4436
277 2 -2.05087 2.6867 -10.0679
281 2 -0.16889 2.55328 -10.2088
282 2 0.0846858 1.58442 -10.0902
284 2 1.39244 1.7855 -10.8102
285 2 1.18774 1.77168 -9.79873
279 2 -0.939733 3.59268 -9.64004
280 2 0.000681977 3.52965 -9.94543
12 1 -0.54143 -1.89303 -8.16743
11 1 -0.930386 -2.78439 -8.01826
13 1 -1.48078 -1.61761 -7.84769
329 2 0.618723 -2.65772 -9.19423
330 2 0.38342 -2.49692 -8.19508
163 1 -0.575129 -0.508636 -8.57626
162 1 0.275662 -0.811746 -8.16413
29 1 1.39077 -1.36017 -8.53127
28 1 2.07617 -0.698269 -8.42863
27 1 2.85392 -0.141742 -7.98656
273 2 -2.13954 0.845508 -8.72851
272 2 -1.78306 1.34297 -7.90293
188 1 0.562184 1.09793 -8.96558
160 1 1.23237 0.498407 -8.27294
159 1 1.05307 1.46061 -7.99449
287 2 1.91125 0.685594 -9.31438
189 1 0.00193813 1.97345 -8.95189
190 1 0.27052 2.22127 -8.03801
278 2 -1.76523 3.13072 -9.25193
10 1 -1.42486 -2.66901 -7.15186
332 2 -0.218356 -2.76164 -6.67727
30 1 1.36353 -1.83761 -7.65588
331 2 0.294766 -2.10138 -7.30728
31 1 1.93915 -2.21154 -6.86409
16 1 -1.84035 -0.907433 -6.70862
15 1 -1.13674 -0.548591 -7.29064
14 1 -0.809267 -1.4742 -7.09198
161 1 1.17401 -0.419519 -7.80264
24 1 1.09493 -1.28859 -6.69449
25 1 2.04854 -1.18338 -6.6922
26 1 2.66526 -1.01737 -7.47638
271 2 -2.17595 1.54046 -7.01265
158 1 0.223409 1.16027 -7.54532
157 1 0.294883 1.05401 -6.57186
270 2 -1.92697 2.24162 -6.41308
191 1 0.679441 2.11603 -7.16067
192 1 1.29144 2.31799 -6.40589
9 1 -1.29011 -3.04977 -6.21902
8 1 -1.12854 -2.638 -5.34442
18 1 -1.50581 -1.72787 -4.98968
333 2 0.367005 -2.37873 -5.95089
334 2 0.735086 -1.83031 -5.26876
32 1 1.64716 -1.96608 -6.0106
17 1 -1.86292 -1.52645 -5.93232
19 1 -1.28163 -0.752276 -4.97159
22 1 -0.300862 -0.638371 -5.58409
23 1 0.588943 -0.823257 -6.02287
33 1 2.19725 -1.45609 -5.36386
34 1 2.03279 -0.525737 -5.83481
35 1 3.02849 -0.511797 -5.65344
37 1 2.19947 -0.140624 -4.79967
268 2 -2.3416 1.30704 -5.70784
269 2 -1.46142 1.43298 -6.1437
21 1 -0.202906 0.16655 -5.0964
156 1 1.01972 0.778126 -5.86373
155 1 1.58794 1.06524 -5.06654
36 1 3.09585 0.241081 -4.91945
267 2 -1.75919 1.61778 -4.92683
195 1 -0.391308 2.95439 -5.56467
196 1 -0.217459 2.29404 -4.79029
194 1 -0.0804179 2.15562 -6.03032
193 1 0.823367 1.92999 -5.60931
7 1 -0.671155 -2.627 -4.44483
6 1 -1.5591 -2.54628 -4.13239
5 1 -0.944959 -2.79321 -3.36766
335 2 0.902432 -1.82162 -4.35078
336 2 1.23701 -2.01072 -3.45975
264 2 -2.15935 -0.496807 -3.1693
20 1 -0.688193 -0.272884 -4.35405
3 1 -0.757181 -1.09616 -3.61219
38 1 3.04998 -0.659449 -4.54896
39 1 2.87078 -0.664996 -3.5616
266 2 -1.48442 0.775731 -4.45915
265 2 -1.50963 0.0349064 -3.7653
152 1 -0.311747 1.12506 -3.89286
153 1 0.544863 1.15949 -4.5108
154 1 1.47702 1.43344 -4.17729
199 1 0.680975 1.15923 -3.29493
197 1 0.73181 2.22173 -4.68723
198 1 0.309239 1.98982 -3.72678
4 1 -0.716157 -1.85936 -2.97857
52 1 -0.197723 -1.93214 -1.77009
337 2 0.80254 -2.59261 -2.82705
338 2 0.609682 -1.61917 -2.61111
263 2 -2.28011 -0.473653 -2.19622
50 1 -0.0718683 -0.194213 -2.02647
2 1 -0.487376 -0.509548 -2.91477
339 2 1.43726 -1.3838 -2.02799
1 1 0.481816 -0.233714 -2.82475
41 1 2.25828 -0.158527 -1.97898
40 1 2.22859 -0.656083 -2.80228
262 2 -2.4183 0.381804 -1.69142
149 1 -1.61246 1.11954 -2.20593
150 1 -1.04984 0.920113 -3.0195
151 1 -0.23122 1.48257 -2.94596
200 1 0.160312 0.674469 -2.51669
43 1 2.39031 1.46398 -2.09634
42 1 2.8259 0.569788 -2.25987
148 1 -1.52582 2.03715 -1.80066
44 1 1.98297 2.28193 -2.51598
45 1 2.02235 2.49228 -1.59411
57 1 -1.93116 -1.8972 -1.1813
53 1 -0.306865 -2.94139 -1.55382
56 1 -1.2681 -2.5684 -0.898689
55 1 -0.613468 -2.02971 -0.357535
54 1 0.137996 -2.51173 -0.704539
340 2 1.55417 -2.0345 -1.32668
342 2 0.855764 -1.74207 -0.347441
58 1 -1.11839 -1.33531 -1.12286
59 1 -0.620805 -0.597383 -0.51598
341 2 1.37452 -1.11205 -0.912714
51 1 0.0880674 -0.96644 -1.44176
261 2 -2.30664 1.30343 -1.32643
259 2 -2.06001 0.445073 -0.0476042
260 2 -1.51847 0.81607 -0.789303
60 1 -0.972735 0.265948 -0.120525
141 1 1.34663 0.358159 -0.0542169
48 1 0.0516195 0.939709 -0.579472
49 1 0.25469 0.132575 -1.17138
142 1 1.90818 1.08536 -0.338064
147 1 -1.12907 2.88174 -1.38859
146 1 -0.405441 2.87319 -0.675863
47 1 0.464032 1.57151 -1.23919
46 1 1.04212 2.29379 -1.52621
143 1 1.18019 1.78971 -0.374493
209 2 -1.78017 -2.19428 1.17482
211 2 -0.819057 -2.03351 0.841085
210 2 -1.4868 -2.69773 0.334933
212 2 0.0102497 -2.08811 1.3667
258 2 -2.12717 -0.411302 0.428567
257 2 -1.38378 -0.167889 1.05463
343 2 0.146814 -1.26283 0.25965
344 2 0.584037 -0.928862 1.07229
214 2 1.63277 -1.46311 1.17842
62 1 -1.4282 1.45129 0.757003
61 1 -0.711758 1.19806 0.145575
140 1 0.428012 0.141066 0.437011
139 1 0.634046 0.13242 1.35749
137 1 2.09341 1.055 1.37847
63 1 -0.966171 2.20849 1.23372
64 1 -0.0274594 2.01716 1.14175
144 1 1.04742 2.31935 0.422814
145 1 0.21092 2.53851 0.00999402
208 2 -1.12666 -1.81192 1.85798
205 2 -0.734537 -2.1628 3.03506
213 2 0.95636 -2.06738 1.66291
217 2 1.40377 -1.59337 2.96716
215 2 2.27069 -1.63198 1.915
207 2 -1.60175 -1.01749 2.25928
348 2 -0.6484 -0.194563 2.99925
345 2 0.079539 -0.629727 1.85765
347 2 0.202547 -0.728086 2.86891
216 2 1.74759 -0.897138 2.34442
254 2 -2.20023 0.565472 1.94215
255 2 -1.56942 0.0471104 2.49813
253 2 -2.37816 1.38603 2.45173
65 1 -0.0719655 1.17508 1.69451
346 2 -0.0025149 0.203936 2.3839
256 2 -0.919668 0.307637 1.77247
138 1 1.48851 0.445871 1.82236
133 1 0.689089 0.952569 3.12204
135 1 1.80694 1.13877 3.02339
66 1 0.570203 1.77307 2.1491
67 1 0.900204 2.26506 2.96277
136 1 1.89595 1.63277 2.19795
202 2 -2.12453 -2.01466 4.08842
204 2 -1.00109 -3.04527 3.45639
203 2 -1.51731 -2.84609 4.25264
227 2 0.820599 -1.59422 4.02665
228 2 0.0992573 -2.27981 3.97355
218 2 1.87412 -2.32508 3.42463
251 2 -1.86108 -0.172748 3.48525
250 2 -2.20969 -0.0423872 4.40145
201 2 -2.25191 -1.09279 4.45746
206 2 -1.07266 -1.22272 3.12989
350 2 -0.676664 -0.730173 4.38792
349 2 -0.0931917 -0.178314 3.83685
226 2 0.751282 -0.66637 4.3701
219 2 1.97783 -1.39745 3.82275
220 2 2.1472 -0.39464 3.93456
252 2 -2.08718 0.762894 3.17095
249 2 -1.43067 0.548527 4.09271
134 1 1.23824 1.42639 3.75554
221 2 1.82869 0.217754 4.63189
132 1 -0.00388117 1.63619 3.2182
130 1 -1.05611 2.21725 4.64708
131 1 -0.738589 2.05059 3.7055
68 1 1.1215 2.68522 3.81368
69 1 0.710685 3.12603 4.62273
229 2 0.763533 -2.33135 4.68946
230 2 0.813299 -1.80239 5.55702
231 2 1.77323 -1.96472 5.54748
399 2 -2.03258 -1.43854 6.1403
400 2 -1.80239 -0.82561 5.3274
351 2 -0.818105 -0.810384 5.38311
352 2 -0.045932 -0.405039 5.94305
225 2 1.06077 -0.266369 5.24622
232 2 2.11659 -1.10002 5.85651
247 2 -1.35734 1.32386 5.48281
248 2 -1.39754 0.358117 5.08352
224 2 1.06704 0.723846 5.20227
128 1 0.164859 1.02347 5.78547
223 2 1.67334 0.820898 5.934
222 2 2.14089 1.0617 5.03826
129 1 -0.382186 1.74288 5.25241
70 1 1.42705 2.67738 5.07287
71 1 0.730353 2.06325 5.51195
398 2 -1.20552 -1.88024 6.54375
397 2 -0.958092 -2.33452 7.37101
237 2 0.256413 -2.29255 7.35938
236 2 1.06992 -1.83795 7.69786
355 2 -1.8137 -1.21614 7.34051
354 2 -1.24792 -0.434273 7.51393
353 2 -0.882187 -0.300798 6.57917
239 2 -0.253777 -0.851645 7.71504
235 2 1.37746 -0.926081 7.60677
233 2 1.38703 -0.8618 6.51157
234 2 1.69505 -0.114741 7.08293
245 2 -2.17603 1.25562 6.50104
246 2 -1.25999 0.850111 6.33784
73 1 0.730735 1.03294 7.04168
75 1 2.35088 1.31092 7.73292
74 1 1.69975 1.3036 7.02097
76 1 2.56138 0.412408 7.43902
244 2 -1.49702 1.62551 7.01567
127 1 -0.0542157 1.61784 6.58069
72 1 1.05136 1.60724 6.30717
126 1 0.304365 2.4793 6.97363
395 2 -1.70475 -1.77427 8.453
396 2 -1.14588 -2.6062 8.34136
238 2 -0.13467 -1.75943 8.14446
357 2 -3.06932 -0.615286 8.07125
356 2 -2.11074 -0.861509 8.20429
360 2 -2.67152 -0.00778411 9.19776
364 2 -0.788051 -0.320876 9.11
81 1 1.20892 -0.101163 8.9261
80 1 1.30701 -1.12069 8.86689
240 2 0.360112 -0.157452 8.14711
365 2 0.1784 -0.55764 9.16078
78 1 2.60514 -0.67725 9.0573
77 1 2.63366 -0.192323 8.1891
358 2 -2.69305 0.337537 8.17811
359 2 -1.87308 0.470029 8.76562
241 2 -0.0208337 0.759601 8.21716
243 2 -1.05865 1.90462 7.8734
242 2 -0.367621 1.67171 8.53969
125 1 0.236122 2.36256 7.93957
123 1 0.779098 1.9956 8.80528
124 1 1.21029 2.57611 8.09116
394 2 -1.81612 -1.70472 9.46163
367 2 -0.142383 -1.99995 9.96349
393 2 -1.20691 -2.29743 9.96156
392 2 -0.973291 -2.69679 10.8562
368 2 0.701498 -1.62287 9.65492
369 2 1.16615 -2.30241 10.2569
370 2 1.64499 -1.77125 10.9344
362 2 -1.91823 -0.858882 10.5656
361 2 -2.68119 -0.532163 10.0114
366 2 -0.443653 -1.09147 9.73551
114 1 -0.591077 -0.523467 10.8721
363 2 -1.35438 -0.427901 9.88389
83 1 1.39741 -0.771939 10.6504
82 1 1.31578 -0.074147 9.95245
79 1 1.89079 -1.02033 9.65369
116 1 -1.7984 1.0304 10.6136
119 1 -0.871768 1.51988 10.7657
115 1 -1.35293 0.16124 10.8328
122 1 0.899477 1.33914 9.62051
86 1 1.36561 1.03028 10.5297
85 1 2.25778 0.666398 10.2589
84 1 1.9047 0.00496198 10.8816
118 1 -1.24679 2.35064 10.4119
121 1 0.808358 2.268 9.995
120 1 0.130177 1.73242 10.4509
391 2 -1.06307 -2.63578 11.8554
390 2 -1.08449 -1.59508 11.8989
371 2 1.33168 -2.61855 11.429
372 2 1.10472 -2.7362 12.4147
113 1 0.228465 -1.08926 10.9693
112 1 0.719572 -0.874559 11.8218
111 1 1.7323 -0.608833 11.996
89 1 0.506564 1.46258 11.6771
117 1 -1.89211 1.91046 11.0373
88 1 0.946059 2.27156 11.8998
87 1 1.53117 1.59904 11.3573
389 2 -1.45532 -2.127 12.6807
374 2 -0.0667958 -2.31512 13.8789
373 2 0.383912 -2.33279 12.988
387 2 -1.99371 -1.49875 13.4983
388 2 -1.72302 -1.12677 12.587
94 1 -1.66556 -0.082404 13.1162
376 2 -0.0705243 -0.524825 13.8458
375 2 0.437737 -1.38705 13.7778
96 1 -2.99748 1.204 13.7823
95 1 -2.48307 0.50547 13.3095
91 1 -0.431857 0.890835 13.2276
90 1 0.231558 1.4245 12.7193
110 1 2.0772 0.160331 12.5581
108 1 2.66064 0.817645 13.2503
109 1 3.03704 0.250919 12.5494
107 1 2.59629 0.240723 14.0463
106 1 1.62523 0.515989 13.823
100 1 -0.639331 2.31521 13.9501
101 1 0.343152 2.48112 13.9026
382 2 0.287247 -1.74038 14.8166
381 2 1.08993 -2.21905 14.8399
380 2 1.80636 -1.95117 14.1825
386 2 -2.19844 -1.11679 14.3589
383 2 -0.121173 -1.10343 15.586
385 2 -1.55415 -0.674814 14.9406
384 2 -0.666472 -1.12282 14.7029
378 2 1.35269 -0.766332 15.1249
377 2 0.840027 -0.358452 14.3496
379 2 2.10793 -1.06994 14.4712
93 1 -1.6138 0.14493 14.086
97 1 -2.42428 0.926337 14.6134
92 1 -0.646624 0.533985 14.1473
104 1 0.672639 1.20987 15.4322
105 1 1.04974 0.978496 14.4972
98 1 -1.77631 1.71392 14.4038
99 1 -0.965222 2.12281 14.81
103 1 0.408876 2.00726 14.8667
102 1 0.946943 2.82995 14.6179
