ITEM: TIMESTEP
0
ITEM: NUMBER OF ATOMS
100
ITEM: BOX BOUNDS ff ff ff
-5.0000000000000000e+01 5.0000000000000000e+01
-5.0000000000000000e+01 5.0000000000000000e+01
-5.0000000000000000e+01 5.0000000000000000e+01
ITEM: ATOMS id type x y z
179 1 -2.5753 0.038289 -13.3307
181 1 -1.63017 0.195888 -12.5758
178 1 -1.65549 0.284042 -13.56
175 1 -1.93722 1.29337 -12.5297
177 1 -0.79891 0.638887 -13.2861
176 1 -1.1485 1.5254 -13.1065
180 1 -2.48111 -0.283619 -12.4004
172 1 -1.58447 -0.107265 -11.3153
173 1 -2.19171 0.662761 -11.558
182 1 -0.937651 0.332328 -11.8922
184 1 -0.340637 0.076008 -11.1406
183 1 0.041502 0.223983 -11.9718
174 1 -1.84046 1.56821 -11.5657
168 1 -0.682112 -2.05165 -10.3644
166 1 -0.16868 -1.91135 -9.41325
167 1 0.166133 -2.52504 -10.0537
171 1 -1.8649 -0.55227 -10.5375
169 1 -0.4951 -1.17709 -10.59
170 1 -1.40375 -1.31994 -10.2697
164 1 -1.1421 -0.631619 -9.41588
186 1 0.220873 -0.832641 -9.5644
185 1 0.153088 -0.266655 -10.326
12 1 -1.96923 -1.58706 -8.47097
165 1 -1.08592 -1.60458 -9.18924
11 1 -1.28871 -2.13964 -8.09636
30 1 1.37072 -1.73908 -7.82975
13 1 -1.62216 -0.764525 -8.21923
163 1 -0.567609 -0.714115 -8.65648
162 1 0.25348 -0.432157 -8.21389
29 1 1.81307 -1.52697 -8.66161
28 1 2.36517 -0.697084 -8.51383
188 1 -0.00314 0.889302 -8.72565
189 1 -0.387131 0.688597 -7.84701
187 1 0.083647 0.125593 -9.35594
161 1 0.909266 0.242124 -8.56866
160 1 1.47197 0.970951 -8.62456
10 1 -0.716091 -2.12343 -7.35896
9 1 -0.778487 -1.7461 -6.42407
31 1 1.16034 -2.22661 -7.04867
16 1 -1.62888 -1.15599 -6.61285
15 1 -1.29474 -0.316284 -6.90215
14 1 -1.09046 -1.04967 -7.51023
25 1 0.983587 -0.611556 -6.85511
26 1 1.50835 -0.658045 -7.63893
24 1 0.548184 -1.46514 -6.61011
32 1 1.68846 -1.56048 -6.63464
27 1 2.40996 -0.391317 -7.59103
190 1 -0.060479 1.1168 -6.99175
159 1 1.08639 1.25947 -7.75875
158 1 0.981209 0.9081 -6.83279
191 1 0.134153 2.05355 -7.13115
192 1 1.05615 2.19922 -6.89409
7 1 -0.765244 -1.78011 -5.02244
8 1 -1.16376 -2.20125 -5.73857
17 1 -2.29629 -1.10841 -5.89445
18 1 -1.65516 -1.2091 -5.18942
19 1 -1.7009 -0.311776 -5.08488
22 1 -0.03195 -0.028552 -5.56122
20 1 -0.800921 -0.293557 -4.812
33 1 1.44827 -1.12604 -5.82372
23 1 0.363552 -0.76887 -5.93812
34 1 2.16213 -0.604629 -6.18031
35 1 2.13396 -0.747032 -5.24193
156 1 0.959993 0.400188 -5.26128
157 1 1.05468 0.160127 -6.19391
155 1 1.49352 1.10361 -4.81712
36 1 1.9573 0.159707 -5.38016
195 1 -0.612265 2.32756 -6.04596
196 1 -0.343178 2.53988 -5.15426
193 1 0.754393 2.28074 -6.00259
194 1 0.053448 1.63977 -6.07413
197 1 0.446502 2.24436 -4.72752
6 1 -0.367414 -2.15377 -4.18909
5 1 -0.650894 -2.43659 -3.34432
4 1 -1.21014 -1.68896 -3.42286
3 1 -0.480793 -1.04026 -3.50714
21 1 0.134886 -0.163875 -4.54734
38 1 2.40426 -0.951814 -4.12384
37 1 1.90688 -0.187689 -4.41637
39 1 2.05696 -0.511585 -3.38221
152 1 -0.343186 1.13427 -3.69107
153 1 0.432884 0.724204 -3.97954
154 1 1.4073 0.596519 -3.94251
198 1 0.528555 2.0313 -3.78607
50 1 -0.173965 -0.133795 -1.77362
2 1 0.136709 -0.718683 -2.84642
41 1 1.92214 -0.012111 -1.76884
200 1 0.670041 1.09419 -2.8137
1 1 0.179043 0.267606 -2.53916
43 1 1.13153 1.08965 -1.86366
40 1 1.63627 0.010168 -2.71746
42 1 2.01646 0.995329 -1.6
151 1 -0.118647 1.70414 -2.94292
199 1 1.06099 1.96047 -2.94318
44 1 1.75672 1.92556 -1.97338
47 1 -0.054314 1.32854 -1.3261
48 1 0.12309 0.743984 -0.532157
46 1 0.803169 1.49382 -0.913683
49 1 0.399162 0.066643 -1.08945
45 1 1.10806 2.28651 -1.4435
ITEM: TIMESTEP
100
ITEM: NUMBER OF ATOMS
100
ITEM: BOX BOUNDS ff ff ff
-5.0000000000000000e+01 5.0000000000000000e+01
-5.0000000000000000e+01 5.0000000000000000e+01
-5.0000000000000000e+01 5.0000000000000000e+01
ITEM: ATOMS id type x y z
179 1 -2.35235 -0.60755 -13.543
181 1 -1.67635 0.573539 -12.3983
178 1 -1.64892 -0.00830182 -13.7825
175 1 -1.86208 1.87811 -12.7359
177 1 -1.23817 0.827961 -14.1216
176 1 -1.7145 1.29159 -13.4485
180 1 -2.10063 -0.238966 -12.7141
172 1 -2.12784 -0.0597658 -11.5957
173 1 -2.12781 0.967828 -11.5016
182 1 -0.912172 0.164809 -11.9912
184 1 -0.0865615 -0.276449 -11.2815
183 1 -0.0631627 0.524761 -11.7931
174 1 -2.02109 1.90997 -11.6754
168 1 -0.264411 -2.35828 -10.9163
166 1 -0.138058 -1.84144 -9.48533
167 1 -0.0657673 -2.67409 -10.0404
171 1 -1.8924 -0.0738465 -10.6729
169 1 -0.485704 -1.4669 -10.7679
170 1 -1.19475 -0.84676 -10.5931
164 1 -0.460144 -0.973424 -9.73001
186 1 0.505255 -0.0178813 -9.89807
185 1 -0.384097 -0.134747 -10.3515
12 1 -2.2519 -1.71044 -8.26779
165 1 -1.01703 -1.81481 -9.80992
11 1 -1.31962 -1.61273 -7.85632
30 1 1.70693 -1.99212 -7.6234
13 1 -1.86169 -0.906002 -8.63091
163 1 -0.433714 -0.540497 -8.86125
162 1 0.302279 -0.665647 -8.27723
29 1 1.81548 -1.61948 -8.49757
28 1 2.07318 -0.826294 -8.95393
188 1 -0.387952 1.15187 -8.68922
189 1 -0.345387 0.68572 -7.79864
187 1 -0.00840344 0.433914 -9.2107
161 1 1.00602 -0.0204118 -8.40869
160 1 1.27033 0.905106 -8.68391
10 1 -0.524368 -2.04217 -7.79047
9 1 -0.667132 -2.20681 -6.81692
31 1 1.04152 -2.19953 -6.89212
16 1 -1.68146 -1.06636 -6.31954
15 1 -1.48913 -0.30781 -6.88556
14 1 -1.42853 -0.630343 -7.82818
25 1 0.541186 -0.252351 -6.90326
26 1 1.41189 -0.430083 -7.28598
24 1 0.478028 -1.1826 -6.61559
32 1 1.60882 -1.5712 -6.53956
27 1 2.07378 -0.467159 -8.06105
190 1 0.101179 1.30613 -7.32569
159 1 1.39885 1.30582 -7.80737
158 1 1.30495 1.20702 -6.8754
191 1 0.249281 2.20973 -7.02574
192 1 1.17317 2.4836 -6.83738
7 1 -0.534146 -2.51316 -4.9276
8 1 -0.859174 -2.28022 -5.84822
17 1 -2.52591 -0.883946 -5.89439
18 1 -1.99283 -1.18775 -5.17685
19 1 -1.69732 -0.429563 -4.72308
22 1 -0.03714 0.342782 -5.75598
20 1 -0.842886 -0.7962 -5.13076
33 1 1.58649 -0.762621 -6.01571
23 1 0.392729 -0.584083 -5.82781
34 1 2.38739 -0.323518 -6.35068
35 1 2.58706 -0.860042 -5.60588
156 1 0.911751 0.400881 -5.41838
157 1 1.26153 0.461938 -6.25894
155 1 1.53102 0.61417 -4.76167
36 1 2.0261 -0.0286797 -5.39519
195 1 -0.488293 2.12692 -6.14848
196 1 -0.15658 2.28509 -5.27661
193 1 0.946659 2.29164 -5.88678
194 1 0.277675 1.62789 -5.92358
197 1 0.325839 2.6579 -4.54043
6 1 -0.580039 -2.33397 -3.93187
5 1 -1.38853 -2.55632 -3.44524
4 1 -1.2982 -1.63431 -3.78208
3 1 -0.788564 -0.945331 -3.35979
21 1 -0.305019 -0.0533847 -4.93758
38 1 2.44885 -0.949812 -4.47031
37 1 2.49739 -0.0384524 -4.59717
39 1 2.06512 -0.577984 -3.55551
152 1 -0.242915 0.99556 -4.02645
153 1 0.702509 1.1125 -4.0494
154 1 1.08444 0.255543 -3.91786
198 1 0.941353 2.11908 -3.9897
50 1 -0.111439 -0.267139 -1.49405
2 1 -0.0154992 -0.882365 -2.64943
41 1 1.91306 -0.0692846 -1.68532
200 1 0.595019 0.999973 -2.96472
1 1 0.630436 -0.370913 -2.13618
43 1 1.2867 1.20898 -2.14103
40 1 1.91933 -0.169669 -2.64454
42 1 2.19234 0.813936 -2.06801
151 1 -0.209822 1.53024 -3.2544
199 1 1.33317 1.44743 -3.29274
44 1 1.73457 2.01266 -1.81581
47 1 0.251643 1.14664 -1.40952
48 1 0.445046 0.666177 -0.638971
46 1 0.501358 1.7579 -0.607689
49 1 0.190825 -0.258752 -0.611112
45 1 0.780778 2.07268 -1.52774
ITEM: TIMESTEP
200
ITEM: NUMBER OF ATOMS
100
ITEM: BOX BOUNDS ff ff ff
-5.0000000000000000e+01 5.0000000000000000e+01
-5.0000000000000000e+01 5.0000000000000000e+01
-5.0000000000000000e+01 5.0000000000000000e+01
ITEM: ATOMS id type x y z
179 1 -2.71316 -0.256451 -13.626
181 1 -1.50752 -0.253839 -12.3457
178 1 -1.83769 0.0850063 -13.7528
175 1 -1.57702 1.6942 -12.5666
177 1 -1.09239 0.647302 -14.0537
176 1 -1.48039 1.45679 -13.4683
180 1 -2.32812 -0.384133 -12.7397
172 1 -2.10857 -0.184917 -11.6127
173 1 -2.32377 0.759057 -11.7127
182 1 -0.940345 0.0578133 -11.66
184 1 0.037211 -0.432294 -11.1731
183 1 0.0251863 0.00549922 -12.0287
174 1 -2.28086 1.74462 -11.8635
168 1 -0.500996 -2.43648 -10.7181
166 1 -0.138349 -2.14041 -9.65827
167 1 0.0105485 -3.03412 -10.146
171 1 -1.74037 0.0763586 -10.7772
169 1 -0.695273 -1.48315 -10.9017
170 1 -1.23133 -0.722688 -10.7147
164 1 -0.595682 -0.966813 -9.82162
186 1 0.408691 0.01971 -9.70054
185 1 0.275597 -0.655029 -10.3311
12 1 -2.00997 -1.59468 -8.34684
165 1 -1.11335 -1.83304 -9.67527
11 1 -1.04146 -1.94686 -8.58903
30 1 1.35229 -2.30642 -8.1811
13 1 -1.85081 -0.889097 -8.90212
163 1 -0.0402443 -0.895228 -9.01675
162 1 0.337798 -0.896827 -8.12868
29 1 2.16869 -1.90436 -8.13057
28 1 1.84357 -1.29482 -8.81138
188 1 -0.0816731 1.38301 -8.63216
189 1 -0.428723 0.856245 -7.79151
187 1 0.324642 0.924488 -9.32399
161 1 0.658423 -0.0757617 -8.47359
160 1 0.974828 0.837997 -8.3775
10 1 -0.869583 -2.2622 -7.71077
9 1 -1.05085 -2.2902 -6.76532
31 1 1.13666 -2.18385 -7.23692
16 1 -1.50873 -1.15472 -6.35003
15 1 -1.95389 -0.524299 -7.01519
14 1 -2.10926 -0.676569 -7.95015
25 1 0.942061 -0.735751 -7.19588
26 1 1.66092 -0.117306 -7.44502
24 1 0.120264 -1.11598 -6.73583
32 1 1.64125 -1.88371 -6.41843
27 1 1.78473 -0.959337 -7.9085
190 1 -0.23495 1.3809 -6.97476
159 1 1.6328 1.34411 -7.92222
158 1 1.28134 1.23763 -6.97116
191 1 0.352149 2.10539 -7.25466
192 1 0.867682 2.46861 -6.56189
7 1 -0.860448 -2.47731 -4.91358
8 1 -0.807219 -2.26048 -5.84982
17 1 -1.88421 -0.46234 -5.76491
18 1 -1.76038 -1.13533 -5.07053
19 1 -1.2532 -0.508964 -4.63142
22 1 -0.242748 0.294925 -5.88388
20 1 -0.728363 -1.01952 -5.27249
33 1 1.54711 -0.969999 -6.22012
23 1 0.414878 -0.326267 -6.30618
34 1 2.47996 -0.748757 -6.33696
35 1 2.21611 -0.735918 -5.45319
156 1 0.941982 0.688916 -5.21814
157 1 1.07956 0.725249 -6.18768
155 1 1.32932 1.00287 -4.44621
36 1 1.92613 0.182785 -5.30343
195 1 -0.109456 2.04428 -6.13712
196 1 -0.0933405 2.75847 -5.50413
193 1 1.32185 1.81208 -6.06961
194 1 0.518695 1.45125 -5.67392
197 1 0.663777 2.98895 -4.989
6 1 -0.773415 -2.61715 -3.94146
5 1 -1.33474 -2.21024 -3.32403
4 1 -1.29513 -1.52348 -3.99301
3 1 -1.23499 -1.16605 -3.09423
21 1 -0.0178089 -0.307193 -5.09118
38 1 2.34836 -0.983185 -4.37812
37 1 2.4741 -0.00841525 -4.56243
39 1 2.51654 -0.608098 -3.47668
152 1 -0.403447 1.12651 -3.80298
153 1 0.246278 0.628768 -4.37765
154 1 0.992599 0.155417 -4.14233
198 1 0.331086 2.36162 -4.226
50 1 0.0760113 -0.181974 -1.72563
2 1 -0.41672 -0.607846 -2.80238
41 1 1.41853 0.257164 -2.26968
200 1 0.598825 1.17154 -2.88087
1 1 -0.0191013 0.255838 -2.52788
43 1 1.29461 1.41426 -1.89012
40 1 2.08161 0.0695014 -2.90046
42 1 2.02984 1.014 -2.41218
151 1 -0.236348 1.70082 -3.03334
199 1 0.843273 1.70047 -3.69207
44 1 1.91512 2.15421 -1.94738
47 1 0.428718 1.2497 -1.30255
48 1 0.885318 0.715642 -0.681044
46 1 0.474402 2.10635 -0.855141
49 1 0.219323 0.112629 -0.808773
45 1 0.998361 2.39257 -1.59843
ITEM: TIMESTEP
300
ITEM: NUMBER OF ATOMS
100
ITEM: BOX BOUNDS ff ff ff
-5.0000000000000000e+01 5.0000000000000000e+01
-5.0000000000000000e+01 5.0000000000000000e+01
-5.0000000000000000e+01 5.0000000000000000e+01
ITEM: ATOMS id type x y z
179 1 -2.77854 -0.342729 -13.4972
181 1 -1.37459 -0.685688 -12.4252
178 1 -1.95287 0.0214025 -13.7412
175 1 -1.92906 1.68163 -12.2431
177 1 -1.58554 0.897425 -13.8359
176 1 -1.41531 1.51292 -13.1539
180 1 -2.28381 -0.895485 -12.83
172 1 -2.15174 0.358432 -11.1485
173 1 -2.00315 1.28073 -11.1255
182 1 -0.62771 -0.282397 -11.9669
184 1 0.254071 -0.862536 -11.0509
183 1 0.1173 -0.0419876 -11.5398
174 1 -2.05687 2.15591 -11.3775
168 1 -0.665374 -2.53878 -11.0803
166 1 -0.497965 -2.60277 -9.44873
167 1 -0.315446 -3.02187 -10.3549
171 1 -1.67491 -0.421569 -11.0412
169 1 -0.500095 -1.53452 -11.0937
170 1 -0.852654 -0.721237 -10.5439
164 1 -0.442506 -1.14655 -9.39166
186 1 0.570515 0.605879 -10.559
185 1 0.465645 -0.314932 -10.3196
12 1 -1.81327 -1.64273 -8.11675
165 1 -1.05642 -1.84659 -9.54471
11 1 -1.02205 -2.18085 -8.30272
30 1 1.41604 -2.00758 -7.88077
13 1 -1.51779 -1.08076 -8.83192
163 1 -0.215114 -0.137145 -9.31676
162 1 0.307614 -0.608928 -8.59907
29 1 2.19218 -2.17111 -8.51797
28 1 1.78941 -1.23375 -8.54219
188 1 -0.0153313 1.38995 -8.9245
189 1 0.0939982 1.42744 -7.97441
187 1 0.216022 0.944194 -9.73153
161 1 1.17548 -0.2307 -8.71551
160 1 0.906824 0.697639 -8.37157
10 1 -1.31812 -2.34708 -7.43497
9 1 -0.70764 -2.2123 -6.70677
31 1 1.43442 -2.39562 -6.9959
16 1 -1.23451 -1.05319 -6.29521
15 1 -1.58014 -0.833298 -7.15328
14 1 -1.82327 -0.618265 -8.02808
25 1 0.833351 -0.631762 -6.86378
26 1 0.902639 -0.0198234 -7.64797
24 1 0.0837258 -1.21329 -6.94437
32 1 1.40838 -1.7716 -6.24159
27 1 1.5125 -0.708466 -7.70638
190 1 -0.177668 1.31787 -7.05673
159 1 1.19884 1.42966 -7.77528
158 1 0.985252 1.45758 -6.78475
191 1 0.196049 2.13891 -7.11722
192 1 1.05932 2.50307 -6.79776
7 1 -1.28442 -2.61127 -5.02378
8 1 -1.24328 -2.5207 -5.95997
17 1 -1.831 -0.587428 -5.7229
18 1 -2.22257 -0.417408 -4.80827
19 1 -1.28177 -0.313234 -4.79468
22 1 -0.101233 0.330216 -5.94439
20 1 -0.704778 -0.812123 -5.35458
33 1 1.13325 -0.888488 -5.86507
23 1 -0.154565 -0.368635 -6.59448
34 1 2.07731 -0.796322 -6.15892
35 1 2.02475 -1.13576 -5.22256
156 1 0.816789 0.764602 -5.16077
157 1 0.855231 0.815741 -6.09328
155 1 1.27954 1.38184 -4.55832
36 1 1.86009 -0.218497 -5.0624
195 1 -0.16567 2.25196 -5.89528
196 1 0.0759662 3.09565 -5.57957
193 1 1.62268 2.36401 -6.02015
194 1 0.819038 1.91214 -5.83913
197 1 0.727558 3.15492 -4.92694
6 1 -1.20759 -2.99862 -4.12262
5 1 -1.07575 -2.18867 -3.73855
4 1 -0.562968 -1.41954 -4.01111
3 1 -0.608734 -1.15147 -3.00346
21 1 0.140783 -0.246117 -5.19099
38 1 2.87687 -0.56661 -3.99989
37 1 2.61467 0.226458 -4.64708
39 1 2.85152 -0.245748 -3.06575
152 1 -0.456509 0.915152 -3.84042
153 1 0.507166 0.786411 -3.65854
154 1 1.2677 0.530367 -4.15304
198 1 0.486144 2.22509 -4.8196
50 1 -0.529679 -0.0195157 -1.08195
2 1 -0.627895 -0.415854 -2.40642
41 1 1.31657 0.105729 -2.82702
200 1 0.333998 1.62478 -2.90056
1 1 -0.256783 0.344741 -1.92708
43 1 1.38559 1.34966 -1.98145
40 1 2.08657 0.20211 -3.54247
42 1 1.86311 0.856894 -2.68319
151 1 -0.444558 1.71034 -3.35369
199 1 0.393539 2.03074 -3.90267
44 1 1.3863 2.23588 -2.4119
47 1 0.451348 1.19396 -0.794766
48 1 0.430642 0.773257 0.0569211
46 1 1.02029 2.01687 -0.693599
49 1 0.290995 0.103442 -0.602996
45 1 1.01013 2.2458 -1.5674
ITEM: TIMESTEP
400
ITEM: NUMBER OF ATOMS
100
ITEM: BOX BOUNDS ff ff ff
-5.0000000000000000e+01 5.0000000000000000e+01
-5.0000000000000000e+01 5.0000000000000000e+01
-5.0000000000000000e+01 5.0000000000000000e+01
ITEM: ATOMS id type x y z
179 1 -2.42746 -0.0778221 -13.0099
181 1 -1.11423 -1.05875 -12.4549
178 1 -1.73099 7.3638e-05 -13.6162
175 1 -1.81321 1.37396 -12.3227
177 1 -1.33959 0.80711 -13.3602
176 1 -1.49411 1.7468 -13.185
180 1 -1.89422 -0.828746 -12.9508
172 1 -2.11122 0.255542 -10.8116
173 1 -1.70123 1.04685 -11.2513
182 1 -0.684849 -0.219557 -12.4162
184 1 0.303486 -0.554711 -11.2313
183 1 -0.069385 0.145491 -11.7823
174 1 -1.90129 1.96116 -11.5182
168 1 -0.239624 -2.16083 -10.9183
166 1 -0.827472 -2.83451 -9.32946
167 1 -0.301246 -2.5631 -10.072
171 1 -1.26839 0.0597843 -11.3401
169 1 -0.656934 -1.3284 -11.2184
170 1 -1.4077 -0.804199 -10.8707
164 1 -0.483404 -1.10499 -9.30084
186 1 0.925183 0.900967 -10.417
185 1 0.89146 -0.04242 -10.6088
12 1 -1.39031 -1.34475 -8.31351
165 1 -1.07154 -1.90175 -9.27049
11 1 -0.932693 -2.1677 -8.01566
30 1 1.04977 -1.66676 -7.99525
13 1 -2.17236 -0.973482 -8.75564
163 1 -0.442997 -0.151918 -9.21128
162 1 -0.126838 -0.434768 -8.29739
29 1 1.86763 -1.96471 -8.35444
28 1 2.19474 -1.08792 -7.97034
188 1 -0.30325 1.13816 -9.0246
189 1 0.205246 1.3753 -8.20136
187 1 0.340605 0.821045 -9.69703
161 1 0.509554 0.287176 -8.18584
160 1 1.41619 0.591718 -8.18774
10 1 -1.50275 -2.14098 -7.25765
9 1 -0.703262 -1.64548 -6.9506
31 1 1.71506 -2.10638 -7.3725
16 1 -1.88516 -1.15064 -6.28131
15 1 -2.01921 -0.443017 -6.91082
14 1 -2.17473 -0.645219 -7.85178
25 1 0.760287 -0.21805 -6.59487
26 1 1.03182 -0.0708996 -7.48549
24 1 -0.0453954 -0.35443 -7.14103
32 1 1.5737 -1.8009 -6.48734
27 1 1.62239 -0.381783 -8.14729
190 1 -0.0271389 1.26393 -7.22967
159 1 1.5144 1.09058 -7.38054
158 1 0.903895 0.887725 -6.67041
191 1 0.295124 2.08487 -7.14416
192 1 0.875529 2.75589 -6.99195
7 1 -0.878695 -2.35662 -5.17863
8 1 -0.913561 -1.76512 -5.96651
17 1 -2.18005 -1.07098 -5.38196
18 1 -2.09274 -0.771265 -4.47318
19 1 -1.45021 -0.132486 -4.75567
22 1 -0.0133119 0.0224474 -5.81484
20 1 -0.658797 -0.608999 -5.04491
33 1 1.53733 -1.08005 -5.83781
23 1 0.0301031 -0.844336 -6.29804
34 1 2.3652 -0.702314 -5.97013
35 1 2.50073 -1.05596 -5.02118
156 1 0.784815 0.989123 -5.42915
157 1 1.43783 0.490716 -5.97796
155 1 1.48768 1.37786 -4.84312
36 1 2.05446 -0.190306 -5.05504
195 1 -0.0252543 1.81574 -5.89486
196 1 -0.0401689 2.61459 -5.3368
193 1 0.841629 2.65799 -5.9705
194 1 0.887083 1.74868 -6.06943
197 1 0.459854 2.85514 -4.55594
6 1 -0.966693 -2.83928 -4.32606
5 1 -1.16443 -1.98536 -3.97844
4 1 -0.24319 -1.91678 -3.63736
3 1 -0.332992 -1.15123 -3.04753
21 1 0.160664 -0.114986 -4.86995
38 1 2.49755 -0.202258 -3.93527
37 1 2.90546 0.017345 -4.80916
39 1 2.88104 -0.159999 -3.08442
152 1 -0.477429 0.714894 -3.77739
153 1 0.302542 0.868183 -4.32175
154 1 1.25996 0.615097 -4.3026
198 1 0.118102 1.94832 -4.57198
50 1 -0.689481 0.183983 -1.28459
2 1 -0.704193 -0.365187 -2.63194
41 1 1.48516 -0.292923 -2.56825
200 1 -0.219583 1.59048 -3.14523
1 1 -0.188406 0.158656 -2.05488
43 1 1.67732 1.25014 -2.19783
40 1 2.00264 0.238266 -3.07426
42 1 1.05054 0.595533 -2.57395
151 1 -1.03307 1.47351 -3.59688
199 1 -0.100309 2.32137 -3.71228
44 1 1.93924 2.1947 -2.17177
47 1 0.606597 1.85585 -0.816873
48 1 0.541242 1.21865 -0.0702687
46 1 1.61735 1.84354 -1.04758
49 1 -0.0349971 0.554161 -0.582599
45 1 1.46521 2.67077 -1.48096
ITEM: TIMESTEP
500
ITEM: NUMBER OF ATOMS
100
ITEM: BOX BOUNDS ff ff ff
-5.0000000000000000e+01 5.0000000000000000e+01
-5.0000000000000000e+01 5.0000000000000000e+01
-5.0000000000000000e+01 5.0000000000000000e+01
ITEM: ATOMS id type x y z
179 1 -2.54572 -0.140061 -13.2529
181 1 -1.25699 -1.02085 -12.2341
178 1 -1.75333 0.412321 -13.1669
175 1 -1.63686 1.98624 -12.4667
177 1 -0.804152 0.742714 -13.4686
176 1 -1.33569 1.48275 -13.2751
180 1 -2.0878 -0.782428 -12.6825
172 1 -1.29822 0.259504 -11.2253
173 1 -1.90521 0.971307 -11.6183
182 1 -0.354856 -0.838967 -12.4512
184 1 0.782593 0.00171938 -11.5095
183 1 -0.123409 -0.0375301 -12.0223
174 1 -2.34648 1.9224 -11.8749
168 1 -0.50808 -2.08978 -11.1457
166 1 -0.618245 -2.5459 -9.36057
167 1 -0.51295 -2.66614 -10.3282
171 1 -2.22318 -0.0143693 -11.0398
169 1 -0.798617 -1.19413 -11.3251
170 1 -1.61064 -0.749309 -11.1389
164 1 -0.604805 -1.09724 -9.45271
186 1 1.31214 0.855809 -10.1917
185 1 1.45318 0.2319 -10.904
12 1 -1.42255 -1.1268 -8.13207
165 1 -1.21641 -1.7931 -9.6787
11 1 -1.15836 -2.02163 -8.39072
30 1 1.20528 -1.67543 -8.05972
13 1 -2.3394 -0.952798 -8.72515
163 1 -0.926441 -0.401847 -8.9645
162 1 -0.0621083 -0.125405 -8.63497
29 1 2.11883 -1.77684 -7.91916
28 1 2.65514 -1.14511 -7.47803
188 1 -0.145132 1.22681 -9.16554
189 1 0.121197 1.56399 -8.31805
187 1 0.359581 0.951501 -9.91917
161 1 0.50679 0.622118 -8.41614
160 1 1.33352 1.05585 -8.26894
10 1 -1.30904 -2.27384 -7.49328
9 1 -1.05917 -1.73299 -6.71006
31 1 1.06466 -2.30815 -7.33659
16 1 -1.72017 -1.06459 -6.28648
15 1 -1.58109 -0.628405 -7.11587
14 1 -2.31448 -1.00169 -7.72612
25 1 0.871182 -0.198071 -6.8047
26 1 1.69413 -0.289709 -7.2239
24 1 0.023228 -0.600309 -7.23183
32 1 1.76453 -2.05041 -6.6104
27 1 2.05105 -0.70613 -8.05894
190 1 -0.0277484 1.21951 -7.43537
159 1 1.74129 1.12296 -7.4135
158 1 1.7224 0.912443 -6.43171
191 1 0.354873 2.09497 -7.38779
192 1 1.09392 2.49294 -6.85221
7 1 -0.788326 -2.91699 -5.37402
8 1 -1.21329 -2.55465 -6.21622
17 1 -1.79642 -0.771353 -5.3405
18 1 -1.95701 -1.01225 -4.48763
19 1 -1.3456 -0.217636 -4.47067
22 1 -0.25805 -0.297405 -5.57688
20 1 -0.621505 -0.852328 -4.67306
33 1 1.71384 -1.25346 -6.12262
23 1 -0.421351 -0.825242 -6.38193
34 1 2.60856 -1.16088 -5.8907
35 1 2.10351 -0.973901 -5.02948
156 1 1.04404 0.90598 -5.01597
157 1 1.10161 0.508182 -5.83671
155 1 1.15979 1.32441 -4.15571
36 1 2.02192 -0.0949413 -4.65389
195 1 -0.0311117 1.77091 -5.46387
196 1 -0.297105 2.69144 -5.35629
193 1 1.41429 2.50473 -5.941
194 1 0.739851 1.81097 -5.93886
197 1 0.511973 2.61013 -4.84496
6 1 -1.10377 -2.43211 -4.57938
5 1 -1.47618 -2.23716 -3.70526
4 1 -0.587199 -2.07538 -3.43976
3 1 -0.131726 -1.4751 -2.82909
21 1 0.278106 -0.669234 -4.92075
38 1 2.81161 -0.0271589 -4.04551
37 1 2.93893 -0.237786 -4.99195
39 1 2.8223 0.00525675 -3.02284
152 1 -0.525446 0.295657 -3.68773
153 1 -0.0617292 0.360097 -4.53026
154 1 0.77152 0.474442 -4.08918
198 1 0.301369 1.92298 -4.24537
50 1 -0.444199 -0.149641 -1.10084
2 1 -0.591222 -0.654712 -2.49297
41 1 1.26842 -0.249796 -2.54463
200 1 -0.107792 1.65235 -3.30313
1 1 0.136654 -0.360383 -1.95646
43 1 1.25844 1.70765 -2.6111
40 1 1.84513 -0.11078 -3.29483
42 1 1.18335 0.70144 -2.79485
151 1 -0.924162 1.20682 -3.55938
199 1 -0.585841 2.18831 -3.94074
44 1 1.79531 2.26616 -2.02994
47 1 0.713718 2.04228 -1.15576
48 1 0.254277 1.39554 -0.55282
46 1 1.54122 2.03675 -0.688382
49 1 0.19927 0.478254 -0.940481
45 1 1.71686 2.83874 -1.29405
ITEM: TIMESTEP
600
ITEM: NUMBER OF ATOMS
100
ITEM: BOX BOUNDS ff ff ff
-5.0000000000000000e+01 5.0000000000000000e+01
-5.0000000000000000e+01 5.0000000000000000e+01
-5.0000000000000000e+01 5.0000000000000000e+01
ITEM: ATOMS id type x y z
179 1 -2.17692 -0.0959638 -13.5181
181 1 -1.13069 -0.711964 -12.4365
178 1 -1.9791 0.777038 -13.1789
175 1 -2.14147 1.9285 -12.6212
177 1 -1.10674 0.878416 -13.5252
176 1 -1.65135 1.69398 -13.433
180 1 -1.95411 -0.834755 -12.9385
172 1 -1.09096 0.36991 -11.0418
173 1 -1.7246 1.04828 -11.3166
182 1 -0.362601 -0.800711 -11.8853
184 1 0.325389 0.567057 -11.2869
183 1 -0.159002 0.149455 -11.9644
174 1 -1.83937 1.87284 -11.7384
168 1 -0.689674 -2.34126 -11.4681
166 1 -0.173092 -2.47062 -9.62215
167 1 -0.293607 -2.37743 -10.5921
171 1 -1.63542 -0.352236 -10.771
169 1 -0.979552 -1.56875 -11.0486
170 1 -1.81302 -1.12825 -11.3247
164 1 -1.29566 -0.921067 -9.97676
186 1 0.870558 0.430844 -10.169
185 1 1.23366 0.316323 -11.0216
12 1 -1.39939 -1.05157 -8.53472
165 1 -0.703211 -1.63955 -9.76116
11 1 -1.14425 -1.86221 -8.09635
30 1 1.37624 -1.88691 -8.18031
13 1 -2.30037 -0.723401 -8.25069
163 1 -0.765566 -0.576871 -9.19284
162 1 0.147715 -0.43222 -8.87266
29 1 2.26158 -2.00728 -8.31423
28 1 2.52513 -1.23117 -7.68133
188 1 -0.264748 1.23676 -9.17663
189 1 0.314592 1.14813 -8.28858
187 1 0.010776 0.583233 -9.797
161 1 0.901799 0.146129 -8.76383
160 1 1.39635 0.760349 -8.20992
10 1 -0.610024 -2.05559 -7.30977
9 1 -0.869878 -2.15478 -6.42004
31 1 1.45945 -2.77867 -7.79972
16 1 -1.44653 -1.19218 -6.27672
15 1 -1.07741 -0.568958 -6.98706
14 1 -1.86552 -0.979672 -7.39702
25 1 0.52896 0.0671103 -7.31141
26 1 1.44717 -0.277084 -7.43122
24 1 0.10924 -0.797682 -7.27846
32 1 1.25831 -2.39968 -6.93149
27 1 2.22478 -0.397243 -7.98485
190 1 -0.407915 1.35867 -7.72565
159 1 2.15564 0.693218 -7.61762
158 1 1.99554 1.12587 -6.71474
191 1 0.321019 1.91619 -7.26611
192 1 1.06315 2.33206 -6.73796
7 1 -0.775399 -2.25922 -5.30289
8 1 -1.4894 -2.60919 -5.90077
17 1 -1.58238 -1.01886 -5.37783
18 1 -1.91513 -1.09978 -4.45787
19 1 -1.09282 -0.575815 -4.58162
22 1 -0.134132 -0.201227 -5.51114
20 1 -0.452661 -1.0837 -5.08285
33 1 1.59039 -1.5351 -6.51166
23 1 -0.172585 -0.62855 -6.38277
34 1 2.49009 -1.1373 -6.33317
35 1 2.10294 -0.920095 -5.51772
156 1 1.33221 0.727131 -4.93136
157 1 1.56432 0.894304 -5.87309
155 1 1.43189 1.11016 -4.04369
36 1 2.56031 -0.257097 -4.99682
195 1 0.0740431 2.10727 -5.57253
196 1 -0.285846 2.71535 -4.89854
193 1 1.37853 2.6152 -5.84404
194 1 1.01272 1.91859 -5.30197
197 1 0.685533 2.84463 -4.98854
6 1 -1.59281 -2.22079 -4.74482
5 1 -1.05921 -2.38927 -3.94982
4 1 -0.923788 -1.71526 -3.29612
3 1 -0.289511 -1.16115 -2.87883
21 1 0.275968 -0.602747 -4.67112
38 1 2.59012 0.219871 -4.0154
37 1 2.10158 -0.628445 -4.21022
39 1 2.78495 -0.253368 -3.13285
152 1 -0.662356 0.237319 -3.77449
153 1 -0.256295 0.490406 -4.62465
154 1 0.420208 0.980238 -4.16957
198 1 0.37188 2.79948 -4.12347
50 1 0.0538896 -0.182112 -1.23579
2 1 -1.11664 -0.752388 -2.52816
41 1 1.2482 -0.0965875 -2.56466
200 1 -0.0440091 1.45398 -2.86283
1 1 -0.671697 -0.11477 -1.92911
43 1 1.58451 1.67311 -2.44844
40 1 1.94956 0.245212 -3.14116
42 1 1.51747 0.76018 -2.14745
151 1 -0.850762 1.05434 -3.24039
199 1 -0.0873021 2.13095 -3.53455
44 1 2.24413 2.37557 -2.33609
47 1 0.746469 2.09382 -0.736553
48 1 0.0517379 1.52956 -0.483683
46 1 1.64834 2.31135 -0.575164
49 1 0.211424 0.756275 -1.04771
45 1 2.06747 2.57248 -1.41746
ITEM: TIMESTEP
700
ITEM: NUMBER OF ATOMS
100
ITEM: BOX BOUNDS ff ff ff
-5.0000000000000000e+01 5.0000000000000000e+01
-5.0000000000000000e+01 5.0000000000000000e+01
-5.0000000000000000e+01 5.0000000000000000e+01
ITEM: ATOMS id type x y z
179 1 -2.14592 -0.109969 -13.5067
181 1 -1.27264 -1.05866 -12.6276
178 1 -1.67822 0.4912 -12.861
175 1 -1.86446 1.71971 -12.3666
177 1 -1.07125 0.995858 -13.4739
176 1 -1.72466 1.73729 -13.2914
180 1 -2.06163 -0.537246 -12.7032
172 1 -1.4166 0.171088 -11.2441
173 1 -1.77419 0.822855 -10.653
182 1 -0.693938 -0.390641 -12.0389
184 1 0.339289 0.385853 -11.3749
183 1 0.223062 -0.0928156 -12.2055
174 1 -1.76772 1.43821 -11.4347
168 1 -0.622444 -2.20723 -11.3969
166 1 0.019642 -2.38401 -9.67767
167 1 0.0322222 -2.36356 -10.6611
171 1 -2.15267 -0.354848 -10.8629
169 1 -1.38365 -1.6869 -11.155
170 1 -1.63404 -0.860074 -11.5737
164 1 -1.16594 -1.11286 -9.76537
186 1 0.65191 0.802287 -9.9263
185 1 1.03612 0.698774 -10.7669
12 1 -1.8218 -1.14559 -8.39719
165 1 -0.349878 -1.55744 -9.89838
11 1 -1.68483 -1.75688 -7.64804
30 1 1.79303 -2.13372 -7.89706
13 1 -2.41384 -0.41729 -8.24565
163 1 -0.694267 -0.451578 -9.2022
162 1 0.164411 -0.61157 -8.81655
29 1 2.48651 -2.08666 -8.5444
28 1 2.83082 -1.23294 -8.36262
188 1 -0.4545 1.07996 -8.86921
189 1 0.0637489 1.62735 -8.26249
187 1 0.0641248 0.41637 -9.2649
161 1 0.964582 -0.0680071 -8.54128
160 1 1.10881 0.795744 -8.13252
10 1 -1.14414 -2.49311 -7.25744
9 1 -0.645267 -2.319 -6.41487
31 1 1.89432 -2.86979 -7.3383
16 1 -1.47754 -0.509171 -5.92816
15 1 -1.19213 -0.49448 -6.83888
14 1 -1.94039 -0.682692 -7.45422
25 1 0.631737 0.0515782 -7.35869
26 1 1.51441 -0.387986 -7.54917
24 1 -0.124599 -0.525751 -7.33058
32 1 1.61232 -2.84527 -6.43366
27 1 2.25723 -0.458909 -8.21453
190 1 -0.480344 2.04128 -7.5544
159 1 1.13164 0.993295 -7.23479
158 1 1.85309 0.943908 -6.61281
191 1 0.451133 1.93348 -7.22007
192 1 1.06076 2.50094 -6.61332
7 1 -0.76828 -2.59941 -5.28865
8 1 -1.33658 -2.80553 -6.03182
17 1 -1.38992 -1.29824 -5.39687
18 1 -2.01379 -0.742852 -4.93618
19 1 -1.10826 -0.620588 -4.48682
22 1 0.340687 0.0764099 -5.66585
20 1 -0.476302 -1.02178 -5.05361
33 1 2.06721 -2.05939 -6.75489
23 1 -0.0823463 -0.381461 -6.36066
34 1 2.68662 -1.38573 -6.50816
35 1 2.29508 -0.963982 -5.72806
156 1 1.37916 0.893229 -5.11823
157 1 2.08354 0.632683 -5.7516
155 1 1.34205 1.31161 -4.24392
36 1 2.12184 -0.175083 -5.19829
195 1 0.224923 2.14464 -5.49128
196 1 -0.182802 2.58334 -4.76697
193 1 1.25288 2.59403 -5.70066
194 1 0.969952 1.92242 -4.95503
197 1 0.657186 2.61644 -4.14985
6 1 -1.51703 -2.6299 -4.66878
5 1 -1.72217 -2.24666 -3.80063
4 1 -1.21913 -2.12562 -3.02746
3 1 -0.586401 -1.38689 -2.87045
21 1 0.241281 -0.381094 -4.74881
38 1 2.87614 0.0184437 -4.40304
37 1 1.92914 -0.402376 -4.25259
39 1 2.71441 -0.174469 -3.46658
152 1 -1.01023 0.292513 -3.73259
153 1 -0.410044 0.638604 -4.4572
154 1 0.387591 1.17834 -4.2145
198 1 -0.0146202 3.08638 -3.64231
50 1 -0.12111 0.402312 -1.82285
2 1 -1.19651 -0.97624 -2.21384
41 1 1.84969 0.0950554 -2.02314
200 1 -0.0649183 1.23346 -3.38188
1 1 -0.714825 -0.179636 -2.32716
43 1 1.13919 1.74755 -2.10763
40 1 1.82118 0.0406595 -3.04726
42 1 1.48433 0.881108 -2.3148
151 1 -0.985899 1.00144 -3.05951
199 1 -0.0628964 2.11729 -3.65705
44 1 1.29455 2.69006 -1.82895
47 1 0.995504 1.62015 -0.151061
48 1 0.00478384 1.37239 -0.247216
46 1 1.76248 1.9123 -0.634009
49 1 -0.0840409 0.676077 -0.938418
45 1 2.14712 2.42632 -1.32617
ITEM: TIMESTEP
800
ITEM: NUMBER OF ATOMS
100
ITEM: BOX BOUNDS ff ff ff
-5.0000000000000000e+01 5.0000000000000000e+01
-5.0000000000000000e+01 5.0000000000000000e+01
-5.0000000000000000e+01 5.0000000000000000e+01
ITEM: ATOMS id type x y z
179 1 -2.37796 0.0444676 -13.2869
181 1 -1.38458 -1.04416 -13.0268
178 1 -1.58483 0.556135 -13.0858
175 1 -1.51586 2.29164 -12.2229
177 1 -1.40476 1.34872 -13.5895
176 1 -1.5063 2.27627 -13.2091
180 1 -1.84566 -0.349316 -12.5726
172 1 -1.3113 0.17938 -10.6712
173 1 -1.70691 1.01297 -10.9208
182 1 -0.417035 -0.671678 -12.8222
184 1 0.209733 0.350725 -11.5675
183 1 0.286087 -0.427996 -12.187
174 1 -1.85033 1.39541 -11.7916
168 1 -1.30103 -2.59894 -11.2364
166 1 -0.399148 -2.58389 -9.94566
167 1 -0.409111 -2.84972 -10.8677
171 1 -1.85203 -0.636689 -10.5718
169 1 -1.76287 -1.84035 -11.5582
170 1 -1.78068 -0.839558 -11.5507
164 1 -1.09212 -1.06166 -9.79483
186 1 0.787605 0.626593 -9.82605
185 1 0.687944 0.259663 -10.697
12 1 -1.66312 -1.41128 -8.45008
165 1 -0.421642 -1.69467 -10.2136
11 1 -1.38213 -1.71829 -7.56205
30 1 1.92227 -2.16256 -7.99215
13 1 -2.1702 -0.757691 -7.9661
163 1 -0.798197 -0.805483 -8.87703
162 1 -0.141093 -0.224035 -8.51568
29 1 2.57683 -2.04658 -8.74545
28 1 2.57339 -1.31577 -8.17605
188 1 -0.626882 1.45747 -8.72575
189 1 -0.331474 0.918337 -8.0085
187 1 0.0938799 1.10999 -9.25849
161 1 0.721062 0.0964058 -8.65467
160 1 1.56473 0.473578 -8.37358
10 1 -1.01475 -2.65136 -7.47964
9 1 -0.741317 -2.23067 -6.70404
31 1 1.70883 -2.59362 -7.15186
16 1 -1.35191 0.00899862 -6.24909
15 1 -1.64729 0.145592 -7.15817
14 1 -1.54851 -0.797366 -7.18325
25 1 0.972389 -0.621172 -6.86813
26 1 1.31217 -0.367906 -7.66996
24 1 0.108419 -0.998193 -6.66412
32 1 1.76263 -3.13693 -6.36513
27 1 2.23661 -0.477773 -7.84888
190 1 -0.223156 1.61004 -7.28122
159 1 1.5428 0.755761 -7.47102
158 1 1.65869 0.920317 -6.49339
191 1 0.142445 2.41952 -6.88668
192 1 0.958665 2.42226 -6.38602
7 1 -0.684766 -2.98436 -5.26544
8 1 -1.17188 -2.89311 -6.08756
17 1 -1.75889 -0.875805 -6.07548
18 1 -1.86363 -0.751608 -5.10908
19 1 -0.95239 -0.560782 -4.7315
22 1 0.123936 0.154603 -5.28273
20 1 -0.199602 -1.1311 -4.47059
33 1 2.23026 -2.24372 -6.33633
23 1 -0.0895281 -0.686931 -5.78363
34 1 2.57322 -1.48301 -6.79084
35 1 2.22844 -0.777031 -6.2426
156 1 1.05427 0.7557 -4.9726
157 1 1.79254 0.980157 -5.54514
155 1 0.704358 0.893792 -4.15818
36 1 1.82078 -0.321348 -5.47031
195 1 -0.266875 2.09938 -5.07817
196 1 0.262959 2.88861 -4.82068
193 1 1.07135 2.74875 -5.43053
194 1 0.687438 1.91784 -4.96941
197 1 0.24879 2.89508 -3.85474
6 1 -1.15813 -2.195 -4.97269
5 1 -1.0466 -2.08016 -3.97349
4 1 -1.21683 -1.8239 -3.07204
3 1 -0.654678 -1.12817 -3.44441
21 1 0.418286 -0.452379 -4.63434
38 1 2.78292 -0.637769 -4.37576
37 1 1.83616 -0.472743 -4.51254
39 1 2.27822 -0.26956 -3.66028
152 1 -1.39675 1.08588 -3.58934
153 1 -0.748851 0.897671 -4.31934
154 1 -0.0609637 1.52193 -4.14003
198 1 -0.512895 2.97531 -3.34904
50 1 -0.147479 0.422708 -1.82417
2 1 -1.27164 -0.672075 -2.71377
41 1 1.40346 0.325171 -2.27752
200 1 0.194263 1.29115 -3.02053
1 1 -0.781752 0.186546 -2.51538
43 1 1.03975 1.80227 -2.22212
40 1 1.98161 -0.219525 -2.77132
42 1 1.82807 1.21867 -2.3593
151 1 -0.798741 1.16046 -2.78953
199 1 -0.0629846 2.23496 -2.96405
44 1 1.46359 2.65964 -2.14108
47 1 0.847926 1.67744 -0.157554
48 1 0.151366 1.57366 -0.79149
46 1 1.30239 2.47944 -0.31822
49 1 0.129761 0.643162 -0.926833
45 1 1.66081 2.51724 -1.21132
ITEM: TIMESTEP
900
ITEM: NUMBER OF ATOMS
100
ITEM: BOX BOUNDS ff ff ff
-5.0000000000000000e+01 5.0000000000000000e+01
-5.0000000000000000e+01 5.0000000000000000e+01
-5.0000000000000000e+01 5.0000000000000000e+01
ITEM: ATOMS id type x y z
179 1 -2.05502 0.302208 -13.847
181 1 -1.37044 -0.421726 -13.2122
178 1 -1.35954 0.687334 -13.2363
175 1 -1.34059 1.66126 -12.5015
177 1 -1.66358 1.54937 -13.5252
176 1 -2.05587 2.22956 -12.9612
180 1 -2.2859 -0.180613 -12.9789
172 1 -1.10922 0.368277 -10.6847
173 1 -1.3946 1.25732 -10.9504
182 1 -0.625425 -0.0936593 -12.6603
184 1 -0.386952 0.067116 -11.3877
183 1 0.111866 -0.370845 -12.0451
174 1 -1.83243 1.53674 -11.6896
168 1 -1.515 -2.66621 -10.9748
166 1 -0.232824 -2.97544 -10.084
167 1 -0.769153 -3.28005 -10.8063
171 1 -1.69199 -0.461407 -10.8043
169 1 -1.65461 -1.8938 -11.5399
170 1 -2.11179 -1.05042 -11.455
164 1 -1.06005 -1.32261 -9.63805
186 1 0.448975 0.881821 -10.3951
185 1 0.527219 0.349739 -11.1981
12 1 -1.87641 -1.72263 -8.69573
165 1 -0.480768 -2.02835 -9.97642
11 1 -1.69666 -2.42851 -8.06276
30 1 2.20931 -2.39574 -8.22447
13 1 -1.31266 -1.28949 -8.02359
163 1 -0.536511 -1.04914 -8.867
162 1 -0.033611 -0.370259 -8.49462
29 1 3.10198 -2.03363 -8.26699
28 1 2.67561 -1.27992 -8.66642
188 1 -0.207682 1.15447 -8.67735
189 1 0.161431 0.978287 -7.82501
187 1 0.311668 0.867017 -9.44738
161 1 0.867832 -0.131436 -8.79324
160 1 1.13966 0.602233 -8.27561
10 1 -1.14953 -2.60166 -7.27502
9 1 -0.37299 -2.35041 -6.6345
31 1 1.81416 -3.09687 -7.69516
16 1 -1.49587 0.0357834 -6.27661
15 1 -0.971435 0.277043 -7.05063
14 1 -1.43079 -0.586618 -7.35127
25 1 0.891855 -0.743855 -7.00561
26 1 1.37223 -0.53201 -7.76208
24 1 0.417728 -1.24556 -6.21074
32 1 1.79806 -3.1568 -6.72212
27 1 1.91966 -1.34483 -8.04623
190 1 0.231151 1.74439 -7.31557
159 1 1.02505 0.759433 -7.34889
158 1 1.50455 0.724742 -6.53037
191 1 0.0899542 2.40399 -6.62053
192 1 0.600903 3.11065 -6.29967
7 1 -0.614706 -2.69404 -5.45011
8 1 -1.0397 -2.93785 -6.25898
17 1 -1.73162 -0.681884 -5.63432
18 1 -1.63668 -0.968031 -4.73309
19 1 -1.00062 -0.225765 -4.89239
22 1 0.204496 0.312848 -5.25957
20 1 -0.177038 -0.694063 -4.71354
33 1 2.33845 -2.44296 -6.45028
23 1 0.258173 -0.269702 -6.02664
34 1 2.53703 -1.57642 -6.09077
35 1 2.41544 -0.725293 -6.47882
156 1 1.49344 0.190523 -4.90365
157 1 1.31077 0.843625 -5.6506
155 1 0.971088 0.828531 -4.40679
36 1 2.07459 -0.695257 -5.5638
195 1 0.123842 2.07247 -5.3941
196 1 0.335925 2.82844 -4.82023
193 1 1.16574 2.3632 -6.21019
194 1 1.11426 1.96132 -5.35436
197 1 -0.493638 2.91253 -4.24018
6 1 -1.01593 -1.91444 -5.1341
5 1 -1.31858 -2.22882 -4.21178
4 1 -1.40452 -2.01499 -3.26303
3 1 -0.798487 -1.32216 -3.37562
21 1 0.563709 -0.128471 -4.51475
38 1 3.17953 -0.377512 -4.03763
37 1 2.51268 -0.706439 -4.6483
39 1 2.56048 -0.921242 -3.48307
152 1 -0.847299 0.710469 -3.34222
153 1 -0.146309 1.02361 -3.86433
154 1 0.726089 1.51046 -3.78526
198 1 -0.93206 2.68206 -3.391
50 1 -0.822968 0.677446 -1.84936
2 1 -1.30981 -0.548075 -3.23391
41 1 1.766 0.341779 -2.53616
200 1 -0.206102 1.75682 -2.42826
1 1 -0.939602 0.00377778 -2.50006
43 1 0.994779 1.91449 -2.07983
40 1 2.09537 -0.555167 -2.70921
42 1 1.55988 1.16557 -2.10177
151 1 -0.958199 1.54571 -2.84341
199 1 -0.170129 2.65816 -2.8248
44 1 1.913 2.30544 -2.22417
47 1 0.962812 1.75777 -0.572301
48 1 0.0339988 1.98796 -0.838412
46 1 1.33212 2.56618 -0.285192
49 1 -0.264386 1.21062 -1.27463
45 1 1.60085 2.36973 -1.27217
ITEM: TIMESTEP
1000
ITEM: NUMBER OF ATOMS
100
ITEM: BOX BOUNDS ff ff ff
-5.0000000000000000e+01 5.0000000000000000e+01
-5.0000000000000000e+01 5.0000000000000000e+01
-5.0000000000000000e+01 5.0000000000000000e+01
ITEM: ATOMS id type x y z
180 1 -2.38825 -0.414819 -13.0825
181 1 -1.52695 -0.678485 -12.97
179 1 -1.78526 0.0907944 -13.6725
178 1 -1.02435 0.648442 -13.6883
177 1 -1.49416 1.23851 -13.1028
176 1 -1.6081 2.20841 -12.8242
168 1 -1.63494 -2.75326 -11.334
167 1 -0.827893 -3.11696 -10.9412
169 1 -1.52047 -1.79598 -11.4499
170 1 -2.12653 -1.03039 -11.5137
182 1 -0.849587 -0.181492 -12.4684
171 1 -1.55411 -0.378286 -10.9812
184 1 0.0938142 -0.702529 -11.2114
183 1 0.0414373 -0.463919 -12.1425
172 1 -1.07697 0.451273 -11.1733
173 1 -0.742376 1.3636 -11.1311
174 1 -0.486469 1.07467 -12.0831
175 1 -1.07318 1.82207 -12.0956
166 1 -0.384845 -2.59424 -10.234
165 1 -0.368866 -2.09557 -9.40515
164 1 -0.976525 -1.40159 -9.59318
185 1 0.7344 -0.152026 -10.7555
187 1 -0.451046 0.536023 -9.45661
186 1 0.398671 0.41891 -9.94164
12 1 -1.54411 -1.96146 -8.66897
30 1 2.51127 -2.63362 -8.23912
29 1 2.59192 -1.65974 -8.4173
13 1 -1.44799 -1.26646 -7.97622
163 1 -0.0359667 -1.2023 -9.23116
162 1 0.134935 -0.422875 -8.6106
26 1 1.54057 -0.997831 -7.82079
27 1 1.4373 -1.00134 -8.80578
28 1 2.35711 -0.750706 -8.73876
188 1 -0.154494 1.28413 -8.90648
189 1 0.0394217 1.35984 -7.94947
161 1 0.924014 0.11877 -8.58143
160 1 1.70523 0.162683 -7.9844
31 1 2.32433 -3.45345 -7.75476
11 1 -1.53089 -2.23301 -7.71556
10 1 -0.685357 -2.38237 -7.30042
9 1 -0.443738 -2.21584 -6.37842
32 1 2.08903 -2.87623 -7.02853
33 1 2.24024 -2.30107 -6.26299
14 1 -1.69021 -0.997929 -7.04929
15 1 -1.16015 -0.218457 -7.13085
25 1 0.977575 -1.05621 -6.99096
35 1 2.85581 -0.567957 -6.52717
159 1 1.34705 0.842609 -7.41565
158 1 1.33209 1.1928 -6.50308
190 1 0.569031 2.08819 -7.50635
191 1 0.0530299 2.41755 -6.67613
192 1 0.702975 3.03762 -6.7984
193 1 1.19191 2.2959 -6.56219
7 1 -0.609065 -2.87908 -5.13624
8 1 -0.975371 -2.9896 -6.04482
17 1 -1.79 -0.798056 -5.74613
18 1 -1.6743 -0.719827 -4.76414
16 1 -1.42952 -0.0563171 -6.21041
19 1 -0.813933 -0.313083 -4.85553
20 1 -0.22557 -0.771001 -5.41895
24 1 0.363767 -1.16142 -6.24187
23 1 0.706823 -0.209937 -6.15952
21 1 0.190338 -0.174003 -4.76578
34 1 2.56414 -1.41207 -6.24688
37 1 2.7144 -0.775312 -4.99313
36 1 3.14783 -0.313315 -5.6633
22 1 0.341027 0.39606 -5.5089
156 1 1.3827 0.24096 -5.01398
157 1 1.37068 1.04761 -5.52686
195 1 0.133009 1.94251 -5.33949
194 1 1.08392 2.05494 -5.62607
6 1 -1.20706 -2.41027 -4.6533
5 1 -1.31587 -1.87579 -3.90356
3 1 -1.51619 -1.00514 -3.32611
38 1 3.01609 -0.443324 -4.13983
39 1 2.70879 -0.665919 -3.28182
152 1 -0.661473 0.686307 -3.23966
153 1 -0.230682 1.36607 -3.86803
155 1 0.769867 0.699931 -4.37755
198 1 -0.889225 2.99635 -3.71291
196 1 0.0546857 2.63522 -4.68265
197 1 0.0594139 2.85477 -3.69235
154 1 0.657363 1.64383 -4.18042
4 1 -1.85147 -1.87782 -3.08322
2 1 -1.34323 -0.446198 -2.59367
40 1 2.16242 -0.203238 -2.63655
50 1 -0.869726 0.815416 -1.59218
1 1 -1.50574 0.446701 -2.28272
151 1 -0.786468 1.2376 -2.49969
41 1 1.55916 0.326299 -2.11724
43 1 1.10811 1.31154 -2.07148
42 1 2.02242 1.08468 -1.91301
200 1 -0.0738688 1.80166 -2.79645
199 1 -0.644272 2.53308 -2.84212
44 1 1.59032 2.14363 -2.30576
49 1 -0.647259 1.66173 -1.07541
47 1 0.991788 1.75835 -0.664349
48 1 0.117419 2.22411 -0.835428
46 1 1.77048 2.31063 -0.501351
45 1 1.86558 2.49272 -1.49723
