LAMMPS (29 Sep 2021 - Update 2)
OMP_NUM_THREADS environment is not set. Defaulting to 1 thread. (src/comm.cpp:98)
  using 1 OpenMP thread(s) per MPI task
Created orthogonal box = (-50.000000 -50.000000 -50.000000) to (50.000000 50.000000 50.000000)
  1 by 1 by 1 MPI processor grid
Reading data file ...
  orthogonal box = (-50.000000 -50.000000 -50.000000) to (50.000000 50.000000 50.000000)
  1 by 1 by 1 MPI processor grid
  reading atoms ...
  100 atoms
  reading velocities ...
  100 velocities
  scanning bonds ...
  2 = max bonds/atom
  reading bonds ...
  100 bonds
Finding 1-2 1-3 1-4 neighbors ...
  special bond factors lj:    0        0        0       
  special bond factors coul:  0        0        0       
     2 = max # of 1-2 neighbors
     2 = max # of 1-3 neighbors
     4 = max # of 1-4 neighbors
     6 = max # of special neighbors
  special bonds CPU = 0.000 seconds
  read_data CPU = 0.006 seconds
100 atoms in group 1
Finding 1-2 1-3 1-4 neighbors ...
  special bond factors lj:    0        1        1       
  special bond factors coul:  0        1        1       
     2 = max # of 1-2 neighbors
     6 = max # of special neighbors
  special bonds CPU = 0.000 seconds
Cutoff is: 1.12246204830937
Seed is: 357648192
Total moving atoms: 200
0 atoms in group FixGCMC:gcmc_exclusion_group:mc
WARNING: Fix gcmc is being applied to the default group all (src/MC/fix_gcmc.cpp:663)
Neighbor list info ...
  update every 1 steps, delay 10 steps, check yes
  max neighbors/atom: 2000, page size: 100000
  master list distance cutoff = 3.122462
  ghost atom cutoff = 3.5
  binsize = 1.561231, bins = 65 65 65
  1 neighbor lists, perpetual/occasional/extra = 1 0 0
  (1) pair lj/cut, perpetual
      attributes: half, newton on
      pair build: half/bin/newton
      stencil: half/bin/3d
      bin: standard
Setting up Verlet run ...
  Unit style    : lj
  Current step  : 0
  Time step     : 0.005
Per MPI rank memory allocation (min/avg/max) = 7.967 | 7.967 | 7.967 Mbytes
Step Temp E_pair E_mol TotEng Press Volume 
       0   0.96019051  0.054454891    20.563994    22.044332 0.00010459873      1000000 
     100   0.96019051  0.026887235    20.657045    22.109815 0.00019480782      1000000 
     200   0.96019051  0.018225265    20.693763    22.137871 -8.6774645e-05      1000000 
     300   0.96019051  0.060610311    20.772449    22.258942 -0.00016251109      1000000 
     400   0.96019051  0.017120436    20.776033    22.219037 0.00013703144      1000000 
     500   0.96019051  0.055150276    20.822033    22.303066 2.9557136e-05      1000000 
     600   0.96019051  0.014684455    20.592032    22.032599 -2.0292214e-05      1000000 
     700   0.96019051  0.026975928    20.638381     22.09124 -1.7956166e-05      1000000 
     800   0.96019051  0.046160329    20.614416     22.08646 0.0003213533      1000000 
     900   0.96019051  0.046278563    20.794944    22.267106 -1.0855307e-05      1000000 
    1000   0.96019051  0.037690783    20.759845    22.223419 -1.8502722e-05      1000000 
Loop time of 112.678 on 1 procs for 1000 steps with 100 atoms

Performance: 3833.947 tau/day, 8.875 timesteps/s
100.0% CPU use with 1 MPI tasks x 1 OpenMP threads

MPI task timing breakdown:
Section |  min time  |  avg time  |  max time  |%varavg| %total
---------------------------------------------------------------
Pair    | 0.010467   | 0.010467   | 0.010467   |   0.0 |  0.01
Bond    | 0.0047484  | 0.0047484  | 0.0047484  |   0.0 |  0.00
Neigh   | 0.52005    | 0.52005    | 0.52005    |   0.0 |  0.46
Comm    | 0.0042446  | 0.0042446  | 0.0042446  |   0.0 |  0.00
Output  | 0.0065695  | 0.0065695  | 0.0065695  |   0.0 |  0.01
Modify  | 112.13     | 112.13     | 112.13     |   0.0 | 99.51
Other   |            | 0.0043     |            |       |  0.00

Nlocal:        100.000 ave         100 max         100 min
Histogram: 1 0 0 0 0 0 0 0 0 0
Nghost:         0.00000 ave           0 max           0 min
Histogram: 1 0 0 0 0 0 0 0 0 0
Neighs:        1001.00 ave        1001 max        1001 min
Histogram: 1 0 0 0 0 0 0 0 0 0

Total # of neighbors = 1001
Ave neighs/atom = 10.010000
Ave special neighs/atom = 2.0000000
Neighbor list builds = 202000
Dangerous builds = 0
System init for write_data ...
WARNING: Fix gcmc is being applied to the default group all (src/MC/fix_gcmc.cpp:663)
OMP_NUM_THREADS environment is not set. Defaulting to 1 thread. (src/comm.cpp:98)
  using 1 OpenMP thread(s) per MPI task
Reading data file ...
  orthogonal box = (-50.000000 -50.000000 -50.000000) to (50.000000 50.000000 50.000000)
  1 by 1 by 1 MPI processor grid
  reading atoms ...
  100 atoms
  reading velocities ...
  100 velocities
  scanning bonds ...
  2 = max bonds/atom
  reading bonds ...
  100 bonds
Finding 1-2 1-3 1-4 neighbors ...
  special bond factors lj:    0        0        0       
  special bond factors coul:  0        0        0       
     2 = max # of 1-2 neighbors
     2 = max # of 1-3 neighbors
     4 = max # of 1-4 neighbors
     6 = max # of special neighbors
  special bonds CPU = 0.001 seconds
  read_data CPU = 0.010 seconds
Finding 1-2 1-3 1-4 neighbors ...
  special bond factors lj:    0        1        1       
  special bond factors coul:  0        1        1       
     2 = max # of 1-2 neighbors
     6 = max # of special neighbors
  special bonds CPU = 0.000 seconds
100 atoms in group 1
Neighbor list info ...
  update every 1 steps, delay 10 steps, check yes
  max neighbors/atom: 2000, page size: 100000
  master list distance cutoff = 3.122462
  ghost atom cutoff = 3.5
  binsize = 1.561231, bins = 65 65 65
  1 neighbor lists, perpetual/occasional/extra = 1 0 0
  (1) pair lj/cut, perpetual
      attributes: half, newton on
      pair build: half/bin/newton
      stencil: half/bin/3d
      bin: standard
Setting up Verlet run ...
  Unit style    : lj
  Current step  : 0
  Time step     : 0.01
Per MPI rank memory allocation (min/avg/max) = 7.717 | 7.717 | 7.717 Mbytes
Step Temp E_pair E_mol TotEng Press Volume 
       0   0.96019051  0.037690783    20.759845    22.223419 -1.8502722e-05      1000000 
   10000   0.98820722   0.06338509    20.801064    22.331937 1.0850824e-06      1000000 
   20000    1.0081233   0.04417795    20.774095    22.315336 0.00019169506      1000000 
   30000   0.84248232   0.03165361     20.71549     21.99823 -2.7198227e-05      1000000 
   40000   0.98976776  0.011789272    20.777599    22.259193 -1.6107896e-05      1000000 
   50000    1.0625762  0.010782997    20.692561    22.281269  5.27561e-05      1000000 
   60000   0.94630044  0.025657705    20.801877    22.232791 -9.8618491e-05      1000000 
   70000   0.91107294 0.0032775736    20.752058    22.108279 7.710485e-05      1000000 
   80000   0.94613688  0.037822174    20.799266    22.242101 5.6930453e-05      1000000 
   90000   0.97010138 0.0031268127    20.759739    22.203466 0.00010885816      1000000 
  100000    0.9908295  0.023188552    20.739913    22.234484 -1.5464415e-05      1000000 
  110000   0.98786167  0.059714667    20.868444    22.395134 -5.4945825e-05      1000000 
  120000     1.031812  0.015816742    20.906307    22.454365 -7.5175023e-05      1000000 
  130000   0.85936356  0.016841116    20.688427    21.981423 1.5519269e-05      1000000 
  140000    1.0230193  0.017883398    20.906083     22.44315 -0.00023592317      1000000 
  150000    1.0992499  0.049647789    20.755137    22.437171 8.8482037e-06      1000000 
  160000    1.0065488    0.0190838    20.709171     22.22298 -0.00015583227      1000000 
  170000    1.1437667  0.070792245     20.73968    22.508966 8.3591717e-05      1000000 
  180000    0.7843857  0.038410787    20.758064    21.961288 -0.00029350986      1000000 
  190000    1.0110816 0.0020319005    20.630849    22.134337 -4.7010704e-05      1000000 
  200000    1.0887175  0.010732087    20.840077    22.467555 0.00010151463      1000000 
  210000    1.0643285  0.036210404    20.762852     22.37959 1.5235202e-05      1000000 
  220000   0.92334086  0.074205225    20.740838    22.186204 7.302011e-06      1000000 
  230000   0.96767012  0.030346947    20.714361    22.181698 -2.5430706e-05      1000000 
  240000   0.96834565  0.055488169    20.747138    22.240619 -9.6397543e-05      1000000 
  250000   0.97248273 0.0058703218    20.724524    22.174531 0.00018203545      1000000 
  260000    1.0564142  0.020456524     20.74791    22.337141 7.5713887e-05      1000000 
  270000    1.0274025  0.050126871    20.695733    22.271553 8.4902736e-05      1000000 
  280000    1.0083785  0.031485895    20.792711    22.321639 -0.00010862945      1000000 
  290000    0.8065917  0.023715704    20.687635     21.90914 2.6087638e-05      1000000 
  300000   0.99159991  0.026067868    20.725808    22.224402 -4.890642e-06      1000000 
  310000    1.0736099 0.0034343391    20.669602    22.267347 -7.189165e-05      1000000 
  320000   0.98606666   0.04423244    20.860286    22.368828 -0.00020384822      1000000 
  330000   0.98800042  0.019170586    20.658789     22.14514 -1.7383653e-06      1000000 
  340000   0.97272317 0.0076380179    20.839724    22.291856 -1.9854977e-05      1000000 
  350000   0.98003293  0.049706212    20.665502    22.170557 -2.2196173e-05      1000000 
  360000   0.88352608   0.02449347    20.670054    22.006584 9.3212758e-05      1000000 
  370000      1.02611  0.019481774    20.792428    22.335683 -0.00014066642      1000000 
  380000    1.1374787  0.026967346    20.586332    22.302455 0.00010970492      1000000 
  390000    1.0053076 0.0054800298    20.732738    22.231099 -9.6860169e-05      1000000 
  400000   0.89584159  0.047477343    20.709299    22.087102 -6.7950458e-05      1000000 
  410000   0.92551571 0.0038498465    20.826913    22.205153 -0.00014469225      1000000 
  420000    1.1886684  0.021103475    20.748146    22.534422 -8.5761597e-05      1000000 
  430000    1.1210735  0.011617987    20.731595    22.408007 4.1611402e-05      1000000 
  440000     1.147842   0.01178276    20.728635    22.444963 0.00010648906      1000000 
  450000    1.0928911  0.030744465    20.775841    22.429529 -7.4769047e-05      1000000 
  460000   0.81647156  0.033659727    20.805301    22.051421 -9.8014466e-06      1000000 
  470000    1.0341027  0.057688461      20.7884    22.381731 -5.1238277e-05      1000000 
  480000    1.0765752   0.02737232    20.905677    22.531764 0.00010359362      1000000 
  490000    1.1227724   0.01907854    20.740359    22.426754 0.00017797632      1000000 
  500000    1.0105526 0.0028771595    20.695306    22.198853 1.6482017e-05      1000000 
  510000    1.0962019  0.044863177    20.806083    22.478806 3.1042492e-05      1000000 
  520000   0.77308751  0.019862409    20.759205    21.927102 0.00010071705      1000000 
  530000    1.1160763 0.0070209254    20.682495    22.346889 3.5430551e-05      1000000 
  540000     1.009825   0.01550961    20.691697    22.206797 -4.2835205e-06      1000000 
  550000   0.90784418  0.018032977    20.646547    22.012728 5.1079575e-05      1000000 
  560000    0.9147699   0.04460655    20.708806    22.111846 3.8367693e-05      1000000 
  570000    1.2020537 0.0055958095     20.82714    22.617786 -3.4821777e-05      1000000 
  580000    1.0941119  0.017262404    20.728458    22.370477 9.0269882e-05      1000000 
  590000    1.1740591  0.028990558    20.604529    22.376997 4.1953824e-05      1000000 
  600000    1.0608262  0.018018633    20.947859    22.541205 -0.00019033322      1000000 
  610000    0.9014206 0.0038523804    20.708914    22.051376 -9.5811972e-05      1000000 
  620000   0.88268483  0.028626869    20.865433    22.204847 -8.8094939e-05      1000000 
  630000    1.0595851  0.062359292    20.763457      22.3993 0.00015052805      1000000 
  640000    1.0691107 0.0099413048    20.797975    22.395546 3.9331951e-05      1000000 
  650000   0.99634167  0.050648005    20.814127    22.344342 -8.0754333e-06      1000000 
  660000    1.0609756 0.0077831884    20.737136    22.320468 -3.7950419e-05      1000000 
  670000    1.0120983   0.05120103    20.756185    22.310352 9.4088477e-05      1000000 
  680000   0.84538742 0.0062463658    20.794722    22.056369 -4.9329529e-05      1000000 
  690000   0.98884274  0.053451378    20.898329    22.420212 -0.0002176428      1000000 
  700000   0.96652726  0.014283266    20.790012    22.239588 -5.3056391e-05      1000000 
  710000    1.0767233 0.00092917945    20.854494    22.454357 8.3634231e-05      1000000 
  720000   0.95693623   0.03210626    20.669336    22.122493 0.00014257981      1000000 
  730000    1.0227008 0.0091450396    20.855305    22.383161 -9.9704635e-05      1000000 
  740000    1.1301716  0.029239728    20.860843    22.568387 5.0095565e-05      1000000 
  750000    1.0593386 0.0074200758    20.704599    22.285137 6.2355627e-05      1000000 
  760000    1.1151855  0.019139539    20.819774    22.494964 -0.0001259439      1000000 
  770000     1.041606   0.03605667    20.743839    22.326681 -7.3945913e-05      1000000 
  780000    1.1802962 0.0042916652    20.699707    22.456739 -5.1862239e-05      1000000 
  790000   0.97424243  0.021681995     20.81022    22.278652 -0.00012415554      1000000 
  800000   0.94509735  0.072636026    20.719168    22.195274 -1.952659e-05      1000000 
  810000     1.053378  0.022574651    20.704668    22.291509 2.1825678e-05      1000000 
  820000   0.80443507  0.015507601    20.860511    22.070605 4.6317031e-06      1000000 
  830000    1.1713876 0.0087837463    20.822789    22.571084 -5.6542507e-06      1000000 
  840000    1.1863498  0.015647823    20.679736    22.457114 -1.4234263e-05      1000000 
  850000   0.99873486  0.011568387    20.553862    22.048551 0.00010752303      1000000 
  860000    1.0287459  0.010515573    20.686873    22.225076 5.2553546e-05      1000000 
  870000   0.91311777  0.035651215    20.740391    22.132022 0.00018907387      1000000 
  880000   0.91877508  0.027246861    20.665719    22.057347 0.00013864951      1000000 
  890000     1.004945  0.090413714     20.74879    22.331547 7.1704171e-05      1000000 
  900000    1.1472786  0.046630063    20.847584    22.597923 -2.4738122e-05      1000000 
  910000   0.94960863  0.013895243    20.829556     22.25362 -0.00013279254      1000000 
  920000   0.94358167  0.052503259     20.75935    22.213072 7.144061e-05      1000000 
  930000    1.0930421  0.026552417    20.686002    22.335722 0.00012416231      1000000 
  940000   0.90246283  0.083687896    20.813317    22.237162 0.00013920483      1000000 
  950000   0.91316111  0.041546074     20.67071    22.068301 -2.7736814e-05      1000000 
  960000   0.84385765  0.044479052    20.657787    21.955395 -3.6649924e-05      1000000 
  970000    1.0123121  0.022267952    20.808745    22.334297 -6.8973802e-05      1000000 
  980000   0.86149104  0.024987857    20.784203    22.088505 -4.8314633e-05      1000000 
  990000    1.1158569  0.012701725    20.786426    22.456175 -5.1464299e-05      1000000 
 1000000     1.147223 0.0070250941    20.741211    22.451863 -2.035305e-05      1000000 
 1010000   0.95419819 0.0054299701    20.676463    22.098878 3.1523785e-05      1000000 
 1020000    1.0133168  0.039017458    20.776102    22.319895 -0.00010501184      1000000 
 1030000   0.97638271  0.016273417    20.635506    22.101707 -7.451406e-05      1000000 
 1040000    1.0566489 0.0016360455    20.803278    22.374038 2.9292594e-05      1000000 
 1050000    1.1192529  0.019431371    20.744214    22.425736 -6.183913e-05      1000000 
 1060000   0.91988523   0.03666728    20.636542    22.039239 -3.9384142e-05      1000000 
 1070000    1.0138917  0.028056485    20.934116    22.467802 -8.5789379e-05      1000000 
 1080000    0.9934477  0.038289018    20.679611     22.19317 9.7940452e-05      1000000 
 1090000    1.1301782 0.0085584738    20.803053    22.489926 -9.7179466e-05      1000000 
 1100000    1.0653682  0.010755611    20.743857    22.336684 9.1967778e-05      1000000 
 1110000   0.92876133  0.040270817    20.596759    22.016241 6.0316315e-05      1000000 
 1120000    1.0516783 0.0083621714    20.758697    22.328802 0.00011426983      1000000 
 1130000    1.0194962 0.0081887331    20.809231    22.331371 6.4574738e-05      1000000 
 1140000    1.0200206  0.072122631    20.691138    22.277991 3.1552439e-05      1000000 
 1150000    1.1425761  0.027446914    20.811024    22.535196 5.9941868e-05      1000000 
 1160000   0.92570137  0.024723937    20.762045    22.161435 5.942351e-05      1000000 
 1170000    1.0272394  0.068132081    20.816792    22.410374 -0.00011043635      1000000 
 1180000   0.99376745  0.047621592    20.859047    22.382413 9.8364664e-05      1000000 
 1190000    1.0672624  0.018484123      20.7977    22.401069 2.3102974e-05      1000000 
 1200000    1.1144419  0.052752649    20.607325    22.315023 -6.2988276e-05      1000000 
 1210000   0.95309845  0.017884922     20.74978    22.183016 -0.00019539992      1000000 
 1220000   0.97576139 0.0047574149    20.921177     22.37494 -0.00015903334      1000000 
 1230000   0.98858118  0.020356973    20.768785    22.257185 -9.3672419e-05      1000000 
 1240000    1.1427128  0.021985746     20.67548    22.394394 0.00012933621      1000000 
 1250000    1.0458336  0.019022091    20.814808    22.386893 -8.8145713e-06      1000000 
 1260000    1.1687069  0.016499636    20.725871      22.4779 -4.7219466e-05      1000000 
 1270000   0.95191547  0.020105559    20.737163    22.170863 5.1611226e-05      1000000 
 1280000   0.93431078  0.029515726    20.859577    22.276545 -7.6390104e-05      1000000 
 1290000     1.004303  0.019940119    20.830643    22.341973 2.7721037e-05      1000000 
 1300000   0.95554119 0.0039305326    20.863477    22.286386 -7.6539965e-05      1000000 
 1310000   0.99989861  0.020494001    20.819635    22.324979 -2.3880248e-05      1000000 
 1320000    1.0692507  0.019743424    20.776783    22.384364 -0.00011768148      1000000 
 1330000   0.91387269  0.011339729    20.775105    22.143545 -0.00018900483      1000000 
 1340000   0.94853819  0.025526171    20.773045     22.20715 0.00017319494      1000000 
 1350000   0.97446397  0.021878396    20.794535    22.263492 1.4569804e-05      1000000 
 1360000     1.014177   0.04963347    20.693235    22.248921 7.4241544e-05      1000000 
 1370000   0.98444231   0.04307221     20.80401    22.308979 -0.0001570149      1000000 
 1380000    1.0893872  0.078245345     20.75996    22.455945 0.00029151052      1000000 
 1390000    1.0098722  0.013398169     20.78003    22.293089 -7.2869529e-06      1000000 
 1400000    0.8382049  0.020675296    20.712351    21.977761 1.8667611e-05      1000000 
 1410000    1.0699213   0.02617475    21.017704    22.632712 -2.4573136e-05      1000000 
 1420000   0.96869681  0.042754669    20.679742    22.161011 5.3932284e-05      1000000 
 1430000    0.9683203  0.046217785    20.755622    22.239796 0.00013225607      1000000 
 1440000   0.99702508  0.048712562    20.863215     22.39251 -5.5431768e-05      1000000 
 1450000   0.98273349  0.027710266    20.747183    22.234253 -2.8386729e-05      1000000 
 1460000   0.89817722  0.043692377    20.710497    22.087982 6.5563395e-05      1000000 
 1470000    1.0048559    0.0251083    20.774347    22.291666 -5.2481228e-05      1000000 
 1480000    1.1426696 0.0028386236    20.752712    22.452415 -6.5758494e-05      1000000 
 1490000   0.97087485  0.017773198    20.857432    22.316954 -9.4315378e-05      1000000 
 1500000   0.92357462  0.068218064    20.671564     22.11129 5.7695943e-05      1000000 
 1510000    1.0272908  0.033188569     20.74981    22.308526 -1.5181149e-05      1000000 
 1520000    1.0058764  0.060030825    20.717129    22.270886 8.1780809e-05      1000000 
 1530000     1.016273  0.013755879    20.763985    22.286907 7.8564313e-05      1000000 
 1540000    1.0925908  0.029245018    20.631747     22.28349 -9.189694e-06      1000000 
 1550000    0.8967425  0.028884602    20.686962    22.047509 0.00010923473      1000000 
 1560000     1.090912  0.022952566    20.806187    22.449144 2.6484968e-05      1000000 
 1570000   0.94818826  0.030243556     20.75491    22.193214 -8.6163467e-05      1000000 
 1580000    1.0073451  0.036268132    20.742549    22.274724 -5.4291461e-06      1000000 
 1590000    0.9957923  0.061776824    20.870602     22.41113 -1.0508845e-05      1000000 
 1600000   0.91559937  0.025160129    20.679356    22.064181 -9.6977445e-05      1000000 
 1610000    1.0597175  0.049683712    20.767965    22.391329 2.9514425e-05      1000000 
 1620000    1.1214956  0.025549625    20.687737    22.378707 -0.00012325497      1000000 
 1630000   0.82497654  0.019184443    20.751008    21.995283 -4.6311964e-05      1000000 
 1640000   0.94809426  0.016568588    20.821446    22.245935 -9.234742e-05      1000000 
 1650000   0.93266479  0.028144652    20.846178     22.25933 -0.00016251129      1000000 
 1660000    1.0477238  0.013025364    20.832966    22.401862 -8.5409123e-06      1000000 
 1670000    0.8628174  0.022871205    20.658751    21.962906 7.4274946e-05      1000000 
 1680000    1.0260583  0.016324224    20.802246    22.342267 -8.355332e-05      1000000 
 1690000    0.9501517 0.0058662803    20.702261    22.119102 -0.00015921091      1000000 
 1700000    1.0791905 0.0084369678    20.809113    22.420148 5.7893947e-05      1000000 
 1710000   0.98337421  0.049631092    20.659515    22.169457 0.00019263741      1000000 
 1720000   0.95767045  0.029537181    20.691882     22.14356 -8.9003059e-05      1000000 
 1730000    1.0673711  0.046814888    20.685314    22.317175 4.9773909e-05      1000000 
 1740000    1.0468377   0.11720811    20.606355    22.278117 -3.2422294e-05      1000000 
 1750000    1.0177732  0.027712856    20.730492    22.269598 3.2345905e-05      1000000 
 1760000     1.127939 0.0098812356    20.838456    22.523327 -3.98927e-05      1000000 
 1770000    1.0796547  0.025520831    20.669514    22.298322 1.4803947e-05      1000000 
 1780000   0.94925435   0.02599366    20.807813    22.243449 -3.8050578e-05      1000000 
 1790000   0.96705891  0.013193038     20.74742    22.196695 -7.6910332e-05      1000000 
 1800000   0.93761214  0.018387873    20.686766    22.097508 3.6304179e-05      1000000 
 1810000   0.98196624  0.020255507    20.831233    22.309708 -2.7714881e-05      1000000 
 1820000   0.98754321    0.0254821    20.711357    22.203341 -1.9929734e-05      1000000 
 1830000    1.0270331  0.023594433     20.65846    22.207199 -3.4096953e-05      1000000 
 1840000   0.93786415  0.012713401    20.824492    22.229933 -0.0001352256      1000000 
 1850000   0.98908529  0.020615033    20.665434    22.154841 9.9036149e-05      1000000 
 1860000   0.97991921 0.0067709961    20.854082    22.316034 -0.00016303362      1000000 
 1870000    1.0060891   0.02439304     20.88027    22.398706 4.0045858e-05      1000000 
 1880000   0.99653221  0.017073523    20.691759    22.188683  5.84133e-05      1000000 
 1890000    1.0386128   0.01706604    20.645077    22.204483 -8.1954359e-05      1000000 
 1900000    1.0808608  0.027172397    20.772977    22.405228 9.4347908e-05      1000000 
 1910000    1.0504739  0.056740535    20.807403    22.424097 3.5271001e-05      1000000 
 1920000    1.2244607  0.016093246    20.738512    22.572929 -0.00012424274      1000000 
 1930000    0.9016421 0.0038938189    20.765236    22.108068 0.00014845969      1000000 
 1940000   0.99795538 0.0050032738    20.784522    22.271489 -0.00015010201      1000000 
 1950000    1.0781643  0.014052392    20.736939    22.352065 -6.9179284e-05      1000000 
 1960000    1.0285609   0.07608868     20.85546    22.458961 -1.1459544e-05      1000000 
 1970000    1.0367712   0.01454491    20.768854    22.323004 7.0278514e-05      1000000 
 1980000    1.2141906   0.05740876     20.88807    22.748551 2.3006235e-05      1000000 
 1990000    1.0444406  0.057488112    20.815371    22.423853 0.00018837682      1000000 
 2000000    1.0190647  0.024526222    20.813779    22.351616 0.00017467746      1000000 
 2010000    1.1358022  0.030708363    20.699617    22.416992 3.0129406e-05      1000000 
 2020000    1.0002945  0.010727533    20.790137    22.286301 -7.5608125e-05      1000000 
 2030000     0.845859  0.017923768    20.738647    22.012671 -6.7374866e-05      1000000 
 2040000    0.8638688 0.0019499251    20.791141    22.075936 -0.00012703455      1000000 
 2050000    1.1932928  0.033033702    20.753689    22.558763 1.2697539e-05      1000000 
 2060000    1.1618772 0.0051446314    20.801429    22.531962 0.00022463421      1000000 
 2070000   0.96465918 0.0055282404    20.755594    22.193641 -0.00014845184      1000000 
 2080000   0.95178576  0.032087784    20.881991    22.327481 3.3258166e-05      1000000 
 2090000    1.0718129  0.026473139     20.68645    22.304566 6.9582916e-05      1000000 
 2100000     0.954994 0.0062336262    20.574258    21.998657 -1.9997272e-05      1000000 
 2110000   0.97605996  0.022614094    20.670861    22.142924 -4.8396093e-05      1000000 
 2120000   0.94397863  0.050631214     20.66007    22.112509 0.0001397495      1000000 
 2130000    1.0583609  0.023457366    20.729642    22.324766 -1.2277701e-05      1000000 
 2140000   0.95372735  0.030286329    20.784412    22.230983 0.0002081395      1000000 
 2150000    1.0049754  0.020936492    20.750412    22.263736 -5.0952289e-05      1000000 
 2160000    1.0186083   0.01370745    20.736087    22.262428 -0.00010261192      1000000 
 2170000   0.91048041  0.034150572    20.877298    22.263512 -2.4753509e-05      1000000 
 2180000   0.97667629  0.059585561    20.661857    22.171807 -7.8871221e-05      1000000 
 2190000    1.0453045  0.025865476    20.605179    22.183322 4.3978534e-05      1000000 
 2200000   0.99873719 0.0031200611     20.65922    22.145465 -0.00016181643      1000000 
 2210000    1.0020526   0.01028247    20.799896    22.298227 6.3205411e-05      1000000 
 2220000   0.97899766  0.046387845    20.955577    22.455776 -0.00011463647      1000000 
 2230000    1.0122176 0.0060960911     20.75935    22.268589 0.00011933618      1000000 
 2240000    1.0151004  0.031552177    20.807043    22.346019 -6.3890774e-06      1000000 
 2250000   0.94622521 0.0066281973    20.693942    22.105715 -0.00015331324      1000000 
 2260000    1.0229644  0.025726015     20.75198    22.296809 7.4885724e-05      1000000 
 2270000   0.93324564 0.0096814455    20.760349      22.1559 -8.2237548e-05      1000000 
 2280000    1.1648561  0.006622985    20.778666    22.515101 -2.7771555e-05      1000000 
 2290000   0.99859862  0.041960211    20.803957    22.328836 4.2691582e-05      1000000 
 2300000   0.92879789  0.011166168    20.747505    22.137936 5.9460194e-05      1000000 
 2310000    1.0902445  0.021761113    20.757309    22.398083 6.7855564e-07      1000000 
 2320000    1.1004983 0.0051573063    20.780954    22.420352 -1.6624718e-05      1000000 
 2330000    1.0272009 0.0070035704    20.710602    22.242999 0.00012432065      1000000 
 2340000    0.9369781  0.026838542    20.731026    22.149277 5.9764812e-05      1000000 
 2350000   0.99531544  0.028145651    20.653865    22.160054 -1.8050563e-05      1000000 
 2360000   0.92123512  0.057677276    20.642817    22.068528 -1.1440585e-05      1000000 
 2370000   0.98361213   0.01728429    20.837531    22.315479 -8.2932162e-05      1000000 
 2380000   0.97954221 0.0079411942    20.751408     22.21397 -3.9074159e-05      1000000 
 2390000     1.162961  0.019699177      20.7268    22.473497 -0.00019747767      1000000 
 2400000    1.0654073  0.011859479    20.748664    22.342653 -8.6644571e-06      1000000 
 2410000   0.94101574 0.0025606173    20.778825    22.178794 -6.3616611e-05      1000000 
 2420000    1.0483335  0.058590303     20.73351    22.348876 -0.00011116381      1000000 
 2430000    1.1040484 0.0070656167    20.846312    22.492889 -5.3183241e-05      1000000 
 2440000   0.90038191   0.03667832    20.831799    22.205545 -5.0785535e-05      1000000 
 2450000   0.99032999  0.016747426    20.748277    22.235664 -0.00014280161      1000000 
 2460000   0.95935588  0.023758082    20.861462    22.309864 -5.578318e-05      1000000 
 2470000    1.0673982  0.035647973    20.564801    22.185536 0.00017385363      1000000 
 2480000    1.1235465  0.028180941     20.77227    22.468917 -2.6387839e-05      1000000 
 2490000    1.1373133  0.052435638    20.758398    22.499744 -9.5296458e-05      1000000 
 2500000    1.1627904  0.034499923    20.763412    22.524656 -8.4359693e-05      1000000 
 2510000     0.910682 0.0083033209    20.690354     22.05102 1.7477416e-05      1000000 
 2520000      1.02389  0.011866309     20.72649    22.258833 3.8900438e-05      1000000 
 2530000    1.1235107  0.024488528    20.797813    22.490715 -3.8884765e-05      1000000 
 2540000    1.1100326  0.044482269    20.876544    22.569424 2.4989565e-05      1000000 
 2550000   0.96570666  0.022200381    20.907596    22.363871 -5.3877411e-05      1000000 
 2560000    1.0966362  0.027380696    20.780917    22.436802 9.8984649e-05      1000000 
 2570000   0.95278072  0.031956339    20.730396    22.177232 -2.2490357e-05      1000000 
 2580000    1.1515763  0.020032331    20.742541    22.472664 2.2089749e-05      1000000 
 2590000    1.0928679  0.017576327    20.627445    22.267931 6.6873306e-05      1000000 
 2600000   0.99725409  0.019335001    20.591853    22.092111 3.249022e-05      1000000 
 2610000   0.98538734  0.048233891    20.633829    22.145363 -4.407307e-05      1000000 
 2620000    1.0529083  0.025930348    20.673573    22.263072 3.7181773e-05      1000000 
 2630000   0.99115448  0.053017473    20.692021    22.216903 -8.5011134e-05      1000000 
 2640000    0.9427435  0.004743833     20.97437    22.379088 -9.4005067e-05      1000000 
 2650000   0.97108958  0.013063529    20.788178     22.24331 4.7762501e-05      1000000 
 2660000   0.95992941  0.011895729    20.657434    22.094824 5.4075414e-05      1000000 
 2670000    1.1085443  0.049440532    20.731074    22.426702 2.4240097e-05      1000000 
 2680000   0.93493443  0.019149383    20.694722    22.102249 -2.4918644e-05      1000000 
 2690000    1.0197277 0.0038919887    20.845821    22.364009 8.8929958e-06      1000000 
 2700000   0.97775998  0.038991406    20.856921    22.347886 0.00024297641      1000000 
 2710000    1.1786797  0.021950286    20.749695    22.521985 -3.516506e-05      1000000 
 2720000     1.005126  0.045453983    20.779812    22.317878 -0.00017738218      1000000 
 2730000    1.0054587 0.0013036002    20.731596    22.226005 -0.00010521302      1000000 
 2740000   0.94108848  0.053730923    20.668298    22.119546 -9.9946771e-05      1000000 
 2750000   0.96601811  0.043089462    20.739633     22.21726 -9.8145449e-05      1000000 
 2760000    1.0295161  0.062532551    20.801291    22.392655 2.7353087e-05      1000000 
 2770000    0.8735196  0.038140409    20.790458    22.125775 -8.1337541e-05      1000000 
 2780000   0.96182007  0.013150782    20.788081    22.229534 -6.6886661e-05      1000000 
 2790000    1.0603908   0.02492779    20.765607    22.365215 5.5993548e-05      1000000 
 2800000   0.92177079  0.075380863    20.728106    22.172317 4.3969557e-05      1000000 
 2810000    1.0349073  0.020823151    20.815005    22.372666 5.0842802e-05      1000000 
 2820000   0.98944471  0.016567146    20.767651    22.253544 -0.00013429644      1000000 
 2830000   0.93898269   0.04343796    20.772789    22.210617 7.8171046e-05      1000000 
 2840000   0.96139167  0.011498625    20.836466    22.275631 -0.00012572972      1000000 
 2850000    1.0526114  0.072106388    20.757503    22.392738 4.0831101e-05      1000000 
 2860000    1.1154855 0.0083454405    20.805842    22.470684 0.00010554492      1000000 
 2870000   0.99970971  0.024992804    20.584349    22.093911 -5.0997464e-05      1000000 
 2880000   0.89035058  0.010763162    20.660934    21.993868 -0.00012347322      1000000 
 2890000    1.0474004  0.013614413    20.651078    22.220082 0.00022035254      1000000 
 2900000    1.0632471   0.02003265     20.75088    22.349835 6.8918644e-06      1000000 
 2910000    1.0946246  0.022173163    20.801952    22.449643 -3.3304324e-05      1000000 
 2920000   0.92381816  0.035122906    20.789827     22.19682 7.3157449e-05      1000000 
 2930000   0.96578215  0.021131731    20.796291     22.25161 -9.1253567e-05      1000000 
 2940000    0.9268135  0.031158827    20.774785    22.182262 -8.0187153e-05      1000000 
 2950000    1.1295027  0.064206568    20.761419    22.502937 -3.5788665e-05      1000000 
 2960000   0.92541131  0.026299392    20.749183    22.149719 -5.522671e-05      1000000 
 2970000    1.1172838 0.0090748824    20.715484    22.383725 3.3118352e-06      1000000 
 2980000    0.9804959 0.0077625406    20.733615    22.197413 3.3180414e-05      1000000 
 2990000    1.1412559  0.020159805    20.820074    22.534998 -0.0001422474      1000000 
 3000000      1.03869  0.023707795    20.677455    22.243618 1.739031e-05      1000000 
 3010000   0.94798781  0.028194726    20.791431    22.227388 -9.4890423e-05      1000000 
 3020000   0.92704357 0.0083860413    20.815892    22.200937 2.4059953e-05      1000000 
 3030000     1.053863  0.069622362    20.683515    22.318124 9.3432759e-05      1000000 
 3040000    1.0436666  0.055399839    20.743699    22.348944 0.00014314303      1000000 
 3050000    1.1124313  0.022215886    20.804624    22.478801 8.2394645e-05      1000000 
 3060000   0.99844157  0.075872354    20.568897    22.127455 0.00012975043      1000000 
 3070000   0.81299488  0.014301521    20.656645    21.878243 -0.00016041811      1000000 
 3080000    1.1352608  0.017396607    20.799921    22.503179 -2.3789761e-05      1000000 
 3090000    1.1151852  0.024691459    20.845782    22.526523 6.9959339e-05      1000000 
 3100000    1.1188843  0.011590317    20.859295    22.532429 -5.8492645e-05      1000000 
 3110000     0.948421  0.028187897    20.648665    22.085258 0.00016762447      1000000 
 3120000   0.94225039  0.017204941    20.728935    22.145381 6.6742652e-05      1000000 
 3130000    1.0724791  0.025869622    20.765794    22.384295 5.6442744e-05      1000000 
 3140000    1.0731305  0.040329885    20.758475    22.392404 -1.4858895e-05      1000000 
 3150000    1.1993384  0.020133727    20.746037    22.547188 6.3908534e-05      1000000 
 3160000    1.0311281  0.077284723    20.715368    22.323878 0.00010942396      1000000 
 3170000    1.0075372  0.049440358    20.598648    22.144281 -7.328244e-05      1000000 
 3180000    1.1678596   0.08417504    20.817655    22.636102 1.5945779e-05      1000000 
 3190000    0.8999256  0.014950968     20.72929    22.080631 -9.70516e-05      1000000 
 3200000     1.000115  0.022554334     20.66222    22.169945 -0.00013645915      1000000 
 3210000    1.0297522  0.016660254    20.760803    22.306646 -5.8712905e-05      1000000 
 3220000   0.92217723  0.014075314      20.5865    21.970008 -6.4981617e-06      1000000 
 3230000    1.2010751  0.079730061    20.636994    22.500321 7.0093296e-05      1000000 
 3240000   0.89425859 0.0058403389    20.892152    22.225966 -0.00011070051      1000000 
 3250000    1.2028311 0.0067312929    20.786249    22.579184 6.4884284e-05      1000000 
 3260000   0.97362654  0.014475524    20.720095    22.180406 9.8876773e-05      1000000 
 3270000   0.99816231   0.02634702      20.6744    22.183018 0.00011768936      1000000 
 3280000    1.0251426  0.020629067    20.721405    22.264371 0.00011538021      1000000 
 3290000    1.0466217  0.013440725    20.686699    22.254373 0.00015679186      1000000 
 3300000   0.89558968    0.0652863    20.584235    21.979472 0.00011426488      1000000 
 3310000    1.0693921  0.036207559     20.74468    22.368935 6.9847811e-05      1000000 
 3320000   0.89160673  0.018958714     20.79612    22.139115 -0.00013660269      1000000 
 3330000    1.0562524  0.048694916    20.762408    22.379638 0.00019740334      1000000 
 3340000   0.98816871  0.012884344    20.725439    22.205754 -0.00013492144      1000000 
 3350000     1.052974  0.012661581     20.77109    22.347418 -4.9020229e-05      1000000 
 3360000    1.0505759 0.0079974032     20.73556    22.303663 6.7141361e-05      1000000 
 3370000    1.0499936  0.028275162    20.831895     22.41941 0.00011572483      1000000 
 3380000    1.1222331  0.035499898    20.686927    22.388943 6.4589416e-05      1000000 
 3390000   0.98845999  0.050785769    20.864951      22.3836 6.2478784e-05      1000000 
 3400000   0.99486589  0.023295558      20.7228    22.223471 -2.871649e-05      1000000 
 3410000    1.1023846  0.052213512    20.697961    22.387216 0.0001798065      1000000 
 3420000   0.87748225 0.00048226861    20.754694    22.058238 -0.00010491002      1000000 
 3430000    1.0600631 0.0068249173    20.772915    22.353934 -0.00016604239      1000000 
 3440000     1.140566  0.017952687    20.847051    22.558744 -3.2582732e-05      1000000 
 3450000    1.0349112  0.029235665    20.815355    22.381434 7.0714949e-05      1000000 
 3460000   0.95936186  0.028251217    20.666102    22.119005 0.00014142358      1000000 
 3470000    1.0900856  0.015030368    20.816734    22.450541 -0.00016277151      1000000 
 3480000    0.9665253  0.026825633    20.766265    22.228381 -4.6612509e-06      1000000 
 3490000    1.0290737   0.04246307    20.680698    22.251336 2.2795789e-05      1000000 
 3500000   0.98035392  0.056204804    20.749054    22.261084 -2.8354283e-05      1000000 
 3510000    1.0002577  0.042760386    20.669942    22.198086 0.00017512297      1000000 
 3520000   0.98741388  0.028597839    20.851344    22.346251 1.1278081e-05      1000000 
 3530000     1.090169 0.0078330453    20.591101    22.217835 6.9883408e-05      1000000 
 3540000    1.0011058  0.010834822    20.758353     22.25583 -7.1327543e-05      1000000 
 3550000   0.92841043  0.029231595    20.851555    22.259477 -2.6213141e-05      1000000 
 3560000   0.90091862  0.058897521    20.711318    22.108079 0.00011503744      1000000 
 3570000   0.97096207  0.030845882    20.696245     22.16897 3.7965871e-05      1000000 
 3580000     0.968029  0.029692977    20.881761    22.348977 -1.435881e-05      1000000 
 3590000   0.88584175 0.00088270473    20.824195    22.140553 7.5122356e-05      1000000 
 3600000    1.0562909  0.016867072    20.669638    22.255098 -2.7005067e-06      1000000 
 3610000    1.1375124  0.072502628    20.749579    22.511287 -1.719012e-05      1000000 
 3620000   0.92630978 0.0044437854    20.813186      22.1932 -0.00019049488      1000000 
 3630000     1.051585   0.01386556    20.726081     22.30155 -0.00010971975      1000000 
 3640000   0.96193053   0.02466932    20.695152    22.148288 -7.2363208e-05      1000000 
 3650000    1.0036099  0.046085493    20.845414     22.38186 2.126893e-06      1000000 
 3660000    1.1444076  0.020528408     20.86883    22.588803 -6.3895785e-05      1000000 
 3670000    1.0431305  0.018443521     20.70045    22.267942 5.9295481e-05      1000000 
 3680000    1.0810959  0.013719547     20.64419    22.263337 7.5474136e-05      1000000 
 3690000   0.87314462  0.023418598    20.818518    22.138556 -0.00020354377      1000000 
 3700000     1.028925   0.01243922     20.78333    22.323723 7.4861126e-07      1000000 
 3710000     1.062052  0.046139014    20.662381    22.285667 7.2403244e-05      1000000 
 3720000    1.0459294  0.012106111    20.753886    22.319197 -0.0001906306      1000000 
 3730000   0.98732088  0.079635931     20.95322    22.499028 2.6362537e-06      1000000 
 3740000   0.94689511 0.0013100279     20.72987     22.13732 8.4058751e-05      1000000 
 3750000   0.92517205  0.033930641    20.806519     22.21433 -2.7400923e-05      1000000 
 3760000   0.96585315  0.032567217    20.870403    22.337262 0.0001316262      1000000 
 3770000   0.97304312  0.012017468    20.613477    22.070464 -4.9611527e-06      1000000 
 3780000    1.0166599  0.020913212    20.881003    22.411656 0.00028843224      1000000 
 3790000   0.98866275 0.0013149205    20.770902    22.240382 -2.9618799e-05      1000000 
 3800000    1.0055581  0.033362386    20.691583    22.218199 3.3069157e-05      1000000 
 3810000   0.93957663  0.009468834    20.919238    22.323978 -0.00021245426      1000000 
 3820000   0.92145887  0.025800302    20.777456    22.171623 -1.4362839e-06      1000000 
 3830000    1.0248812  0.020193371    20.697122    22.239264 -6.7510148e-05      1000000 
 3840000   0.97758735  0.033286971    20.811883    22.296887 0.00011433994      1000000 
 3850000   0.94501185  0.025674797      20.7258    22.154817 0.00011493689      1000000 
 3860000   0.92962797 0.0015195637    20.705355    22.087372 7.4805422e-05      1000000 
 3870000    1.0825923  0.015249761    20.829959    22.452858 -4.2795789e-05      1000000 
 3880000   0.96637284  0.027989291    20.886782    22.349835 -0.00014851439      1000000 
 3890000    1.0071314  0.039795675    20.658376    22.193762 -1.2522983e-05      1000000 
 3900000    1.0537048  0.024597333    20.758237    22.347586 -1.4432933e-05      1000000 
 3910000     1.023241  0.012036606    20.817757    22.349306 -8.9304522e-05      1000000 
 3920000    1.0947873  0.027966864    20.642942    22.296667 5.6184555e-05      1000000 
 3930000   0.99787212 0.0029235971    20.854439    22.339203 -5.5891726e-06      1000000 
 3940000    1.0431225  0.017058967    20.825415    22.391511 2.9550915e-05      1000000 
 3950000    1.0417166 0.0070630254    20.792645    22.346658 0.00014165976      1000000 
 3960000    1.0228052   0.05608767    20.894494    22.469447 -0.00019923197      1000000 
 3970000    1.0529065  0.034496862    20.684749    22.282812 0.00023551507      1000000 
 3980000   0.99557563   0.01374482    20.668377    22.160551 1.080197e-05      1000000 
 3990000    0.9691626  0.015503998    20.928351    22.383062 2.0105811e-05      1000000 
 4000000    1.1059842   0.05370977    20.724701    22.420797 -8.3666134e-05      1000000 
 4010000   0.98970863  0.019119216    20.685433    22.174269 -7.6555345e-06      1000000 
 4020000   0.87575268 0.0084304795    20.852236    22.161159 -0.0001477507      1000000 
 4030000   0.99424736 0.00087112934    20.700892     22.17822 -7.3332008e-05      1000000 
 4040000    1.1645474 0.0078977615    20.866039     22.60329 8.5203272e-05      1000000 
 4050000    1.0881265  0.011087953    20.740452    22.367408 -0.00020173754      1000000 
 4060000   0.97771539  0.039744128    20.866649      22.3583 -0.00014135799      1000000 
 4070000   0.98682531  0.023633764    20.828673    22.317743 -3.3106063e-05      1000000 
 4080000   0.98441224  0.031932508    20.887412    22.381196 -6.2250486e-05      1000000 
 4090000    0.8908691  0.010148171     20.68644    22.019528 5.5534672e-05      1000000 
 4100000    1.0590364  0.043239277    20.634136    22.250044 0.00011599894      1000000 
 4110000    1.0385004 0.0072794304    20.778513    22.327965 -0.00019460889      1000000 
 4120000    1.0781514  0.016632747    20.726875    22.344563 0.00017162145      1000000 
 4130000    1.0194715  0.027266742    20.799412    22.340594 5.046912e-06      1000000 
 4140000    1.0920816 0.0023399434    20.788536    22.412617 -0.00012081994      1000000 
 4150000    1.0557958 0.0084110398    20.759177    22.335444 0.00013537579      1000000 
 4160000   0.91360776  0.025768336    20.787422    22.169898 0.00014868767      1000000 
 4170000    1.0436045  0.022147319    20.692981    22.264881 0.00019323873      1000000 
 4180000    1.0199954   0.01109865    20.684455    22.210247 -7.6267754e-06      1000000 
 4190000   0.96457451  0.024649001     20.78766    22.244702 3.0294237e-05      1000000 
 4200000    1.0361377  0.035968253    20.823853    22.398486 -6.9174078e-05      1000000 
 4210000    1.1613409   0.03450728    20.735609    22.494708 1.7794286e-05      1000000 
 4220000    1.0825091  0.021475848    20.783753    22.412755 -7.5364383e-05      1000000 
 4230000    1.0835708  0.015027226    20.670985    22.295115 -7.9403276e-05      1000000 
 4240000   0.86680581 0.0044307578    20.720124    22.011761 -5.107198e-05      1000000 
 4250000   0.95624229 0.0085901245    20.717152    22.145761 0.00020041331      1000000 
 4260000   0.95869698 0.0099526125    20.767461    22.201079 5.1714751e-05      1000000 
 4270000   0.93523081  0.014190442      20.7878    22.190808 0.00017554285      1000000 
 4280000   0.88484522  0.017587501    20.690108    22.021691 3.136764e-05      1000000 
 4290000   0.86079375  0.049101526    20.742544    22.069924 -8.9411998e-05      1000000 
 4300000     0.970523  0.034142433    20.721618    22.196987 1.5831393e-05      1000000 
 4310000    1.0298748  0.039349016     20.72769    22.296403 2.8972054e-05      1000000 
 4320000   0.91386997  0.036539753    20.741873     22.13551 0.00010685369      1000000 
 4330000    1.1002826  0.041006696     20.62265    22.297576 0.00021178708      1000000 
 4340000    1.0574831  0.027581603    20.692352    22.290296 2.9328798e-05      1000000 
 4350000    1.0279073  0.039811085    20.743989    22.310243 3.8860857e-05      1000000 
 4360000     1.033255  0.048846168    20.653692    22.236922 0.00014276627      1000000 
 4370000    0.9551558  0.071288798      20.7794    22.269095 -3.7495887e-05      1000000 
 4380000   0.92207422  0.013647712    20.764553    22.147481 -3.6166096e-05      1000000 
 4390000    1.0824694 0.0088232796    20.743431    22.359722 -5.4179638e-05      1000000 
 4400000   0.93577537  0.012022983    20.645524    22.047173 0.00010586966      1000000 
 4410000   0.91446951  0.033835829    20.849268    22.241091 5.8075922e-05      1000000 
 4420000   0.92450405  0.011478698    20.666449    22.050816 -2.7261329e-05      1000000 
 4430000   0.95364915  0.010974557      20.6599    22.087044 6.9280653e-05      1000000 
 4440000    1.0314958  0.035568291    20.777079    22.344419 7.9438355e-05      1000000 
 4450000   0.99249508 0.0073757555    20.657046    22.138276 8.1065298e-05      1000000 
 4460000   0.89966824  0.042442292    20.907431    22.285881 -0.00019559119      1000000 
 4470000   0.99238458  0.002419283    20.757846    22.233957 1.2843021e-05      1000000 
 4480000   0.94419663  0.011623289    20.770113    22.183868 -0.0001494408      1000000 
 4490000      1.04471  0.028014195     20.72667    22.306079 -0.00014222546      1000000 
 4500000   0.98037758  0.019223436    20.778898    22.253982 -0.00010734636      1000000 
 4510000   0.99673752  0.037882765    20.784341    22.302379 -0.00011113784      1000000 
 4520000    0.9601901  0.031081701     20.70583    22.162794 -0.0001239134      1000000 
 4530000   0.86023693  0.030975626    20.685021    21.993449 -1.2790856e-05      1000000 
 4540000    1.0497471 0.0084518447    20.586866    22.154193 4.7505001e-05      1000000 
 4550000    1.0938687 0.0048956743    20.747193    22.376483 5.5931946e-05      1000000 
 4560000    1.0932248  0.042765014    20.860852    22.527055 -5.6920198e-05      1000000 
 4570000   0.95042613 0.0044831142    20.690579    22.106445 -8.6428609e-05      1000000 
 4580000    1.0522673   0.02117431    20.676762    22.260553 5.4254161e-05      1000000 
 4590000    1.0721121  0.010867023    20.655217    22.258171 4.9546609e-05      1000000 
 4600000     1.001367  0.016838136    20.753269    22.257137 5.7932277e-05      1000000 
 4610000    1.0718177  0.034317396    20.751845    22.377811 -8.2828653e-05      1000000 
 4620000    1.0862678   0.04641085    20.851178    22.510697 4.2819612e-05      1000000 
 4630000    1.0730227  0.014815284    20.757381    22.365635 -1.9543958e-05      1000000 
 4640000    1.1769792  0.042550642     20.79004    22.580405 9.7135229e-06      1000000 
 4650000    1.1001211  0.017443386    20.788132    22.439255 5.345656e-05      1000000 
 4660000    1.0520602   0.01708426    20.792753    22.372147 -0.00020565046      1000000 
 4670000    1.1639782 0.0066000703    20.729963    22.465071 -5.7048084e-05      1000000 
 4680000   0.96433378 0.0019174153    20.715365    22.149318 -9.8222537e-06      1000000 
 4690000   0.95384452  0.022186652    20.801431    22.240077 7.5443155e-05      1000000 
 4700000   0.99553319  0.035669865    20.746448    22.260485 -5.126127e-05      1000000 
 4710000    1.0892931  0.019191997    20.828365    22.465157 -0.00014383498      1000000 
 4720000    1.0182556  0.036498537    20.881508    22.430116 -4.7711572e-05      1000000 
 4730000   0.94239734  0.037859748    20.944714    22.382034 1.3280029e-05      1000000 
 4740000   0.91228224  0.012565133    20.796665     22.16397 -5.1616534e-05      1000000 
 4750000   0.99848006  0.026790907    20.801409    22.310943 -0.00023306518      1000000 
 4760000    1.0432911  0.028291647    20.728251     22.30583 8.4603397e-05      1000000 
 4770000    1.0319086 0.0046053412    20.716646    22.253635 -2.0135501e-05      1000000 
 4780000   0.96214402  0.066471974    20.703616    22.198872 -2.9373197e-05      1000000 
 4790000    1.0466491  0.017632018    20.667189    22.239095 4.9581176e-05      1000000 
 4800000    1.0358057 0.0097102122    20.807412    22.355293 0.00011638242      1000000 
 4810000   0.96260909  0.018256178    20.803183    22.250913 0.00014162527      1000000 
 4820000   0.91561081  0.023934398    20.755517    22.139134 -0.00016545604      1000000 
 4830000    1.0979341  0.030359567    20.619724    22.280516 8.3926507e-05      1000000 
 4840000    1.0128372  0.015839681     20.68299    22.202893 -8.368364e-05      1000000 
 4850000    1.0039429  0.027848753    20.723457    22.242161 -6.5351782e-05      1000000 
 4860000   0.91425034 0.0067288378    20.739765    22.104156 -2.3326528e-05      1000000 
 4870000    1.0245033 0.0019383976     20.74578    22.269106 -4.2218346e-05      1000000 
 4880000   0.95341732  0.031545746    20.708682    22.156053 3.5042268e-05      1000000 
 4890000    1.0124272  0.035316954    20.769766    22.308538 7.4014619e-05      1000000 
 4900000    1.1713673   0.03510041    20.681221    22.455802 5.5107777e-05      1000000 
 4910000     1.038935   0.03200731    20.711405     22.28623 9.4919885e-05      1000000 
 4920000   0.97792931 0.0076934754    20.745871     22.20579 2.4155806e-05      1000000 
 4930000    1.0153409  0.023347402    20.749054    22.280183 6.7333844e-05      1000000 
 4940000    1.1061533  0.057391191    20.837248    22.537277 -7.0153322e-06      1000000 
 4950000   0.85811218   0.01284354    20.595135    21.882275 -3.7701227e-05      1000000 
 4960000    0.9758169  0.061761156    20.650823    22.161672 -1.301811e-05      1000000 
 4970000    1.0215756 0.0095335753    20.750998    22.277571 -0.00013452017      1000000 
 4980000   0.99086266  0.079570146    20.855584    22.406585 -1.1657203e-05      1000000 
 4990000    1.0155579 0.0024389852     20.80187    22.312413 -8.4183076e-05      1000000 
 5000000   0.93824841  0.029049819    20.909201    22.331549 -5.2776289e-05      1000000 
 5010000    1.0756835  0.047081363     20.73965    22.384121 2.2652796e-06      1000000 
 5020000    0.9643561  0.041328028     20.69887    22.172267 -7.8037653e-05      1000000 
 5030000    1.0838126  0.030548013    20.696001    22.336011 9.2965241e-05      1000000 
 5040000    1.1926397 0.0080050582    20.756053    22.535128 -7.9977884e-05      1000000 
 5050000   0.95863855  0.027726897    20.698279    22.149584 -7.3681901e-05      1000000 
 5060000    1.0346105  0.053476705    20.726224    22.316097 7.3101772e-05      1000000 
 5070000    1.0795911  0.019187076    20.595201    22.217581 2.3633933e-05      1000000 
 5080000   0.80793036 0.0041887722    20.871884    22.075849 -2.9332586e-05      1000000 
 5090000    1.0111717  0.038467506    20.762133     22.30219 -3.1066375e-05      1000000 
 5100000    1.0218062  0.024060479    20.877681    22.419123 -0.00013469307      1000000 
 5110000    0.9731051  0.018603271    20.721434    22.185098 9.0064432e-05      1000000 
 5120000   0.86306623  0.015789837    20.727384    22.024827 -2.3483494e-05      1000000 
 5130000   0.93674179  0.049325843    20.698167    22.138554 -6.3151789e-06      1000000 
 5140000    1.0149772  0.010894531    20.727936    22.246072 0.00017080177      1000000 
 5150000   0.99279843  0.015932265    20.924541    22.414779 -1.94591e-06      1000000 
 5160000    1.0845974  0.027623095    20.747714    22.385964 -0.00015635462      1000000 
 5170000   0.92753495  0.010491032    20.856593    22.244473 3.9703665e-06      1000000 
 5180000    1.0211102  0.038593253    20.787393    22.342335 -9.4365563e-08      1000000 
 5190000   0.96221254  0.019705633    20.683127    22.131718 -8.2231204e-05      1000000 
 5200000    0.9769283  0.021491472    20.774956    22.247186 -4.8737982e-05      1000000 
 5210000     1.103088  0.058611196     20.60791    22.304607 9.6246938e-05      1000000 
 5220000    1.0471273  0.011798265    20.714157     22.28094 -2.5506395e-05      1000000 
 5230000   0.88217438   0.01693929    20.796093    22.123061 -0.0002497075      1000000 
 5240000   0.92572856 0.0089972799    20.797678    22.181382 2.3320911e-05      1000000 
 5250000   0.96518209  0.022251453    20.756333     22.21188 1.4018243e-05      1000000 
 5260000    1.1069934   0.02373764    20.694853    22.362475 -7.5868891e-05      1000000 
 5270000   0.88729253  0.019601947    20.806314    22.143546 0.00014914341      1000000 
 5280000    1.0598823  0.014563715    20.638533    22.227022 1.1438255e-05      1000000 
 5290000   0.97994813  0.076407043    20.729417    22.261047 -2.8501706e-05      1000000 
 5300000   0.93001434  0.033130907    20.790926    22.205128 -6.0163543e-05      1000000 
 5310000   0.96742538  0.048287981    20.727017    22.211931 -2.9382727e-05      1000000 
 5320000    1.0886366  0.022541181    20.788693    22.427859 8.0767808e-05      1000000 
 5330000   0.98288243 0.0097566896    20.796271    22.265609 -0.00010272292      1000000 
 5340000    1.0322361 0.0070560718    20.659691    22.199618 5.103494e-05      1000000 
 5350000    1.0341668  0.024761233    20.746708    22.307207 -8.7898242e-05      1000000 
 5360000    1.0058727  0.016255637    20.862277    22.372253 9.5311291e-05      1000000 
 5370000      1.06991  0.048753455    20.809459    22.447028 7.3912305e-05      1000000 
 5380000   0.92113801 0.0021647217    20.633863    22.003918 -5.6947532e-05      1000000 
 5390000   0.93338465  0.041615573    20.710973    22.138665 1.5406663e-05      1000000 
 5400000   0.96945371  0.026034976    20.649982    22.115656 -0.00013870366      1000000 
 5410000   0.95674383   0.03278142    20.739176    22.192722 -8.2478152e-05      1000000 
 5420000   0.96937672  0.028065087    20.725944    22.193533 0.00012611215      1000000 
 5430000   0.98511129  0.034849557    20.752076    22.249816 8.8871817e-05      1000000 
 5440000   0.93203559  0.015930601    20.824872    22.224876 -3.1530712e-05      1000000 
 5450000    1.0602578  0.011731995    20.708709    22.294924 -6.3567092e-07      1000000 
 5460000     1.130304  0.028561541    20.742607     22.44967 0.00019102936      1000000 
 5470000   0.88078433  0.026604064    20.776979    22.111548 9.1404146e-05      1000000 
 5480000   0.88008291  0.063367539     20.82005    22.190341 -5.8539455e-05      1000000 
 5490000    1.0053179  0.010081009    20.761465    22.264444 4.4889346e-05      1000000 
 5500000   0.99379308 0.0092493791    20.894398     22.37943 4.9325647e-06      1000000 
 5510000   0.96362576  0.016105502    20.718262    22.165352 5.8890104e-05      1000000 
 5520000   0.86853229   0.03116537    20.880582    22.201518 -1.8946436e-05      1000000 
 5530000   0.97332336  0.013032398    20.632754    22.091172 7.8949223e-05      1000000 
 5540000   0.98545857 0.00095569861    20.741411    22.205773 0.00010426676      1000000 
 5550000   0.83697218  0.012081532    20.746292    22.001277 -7.7992149e-05      1000000 
 5560000    1.0379155  0.022425117    20.759544    22.323274 -7.2920882e-05      1000000 
 5570000    1.1279678  0.041729701    20.749688     22.46645 2.6543401e-05      1000000 
 5580000   0.93564849  0.044828173    20.657323    22.091589 2.7749034e-05      1000000 
 5590000     1.221556  0.026037413    20.691861    22.531909 0.00022527124      1000000 
 5600000    1.0674407  0.025786796    20.739386    22.350322 1.3146403e-06      1000000 
 5610000    1.0769249  0.012045696    20.656731     22.26801 0.00022204032      1000000 
 5620000   0.81720409  0.047786865    20.692836    21.954171 -5.7042441e-05      1000000 
 5630000     1.025139 0.0061132447    20.680504    22.208949 5.7490706e-05      1000000 
 5640000    1.0141421 0.0077108602    20.695016    22.208728 -6.7749014e-06      1000000 
 5650000   0.97563764  0.045458633    20.750427    22.244708 0.0001017801      1000000 
 5660000   0.93568091  0.025958444    20.782534    22.197979 9.5078223e-05      1000000 
 5670000    1.1703782 0.0065387019    20.777348    22.521898 0.00016054135      1000000 
 5680000   0.92445522 0.0069590204    20.697742    22.077517 -9.3303984e-05      1000000 
 5690000    1.1113344  0.035242219    20.721033    22.406607 5.4655918e-05      1000000 
 5700000   0.93020687 0.0056649225    20.817599    22.204621 -6.2641566e-05      1000000 
 5710000   0.97878475  0.025732662    20.876127    22.355355 4.3552734e-05      1000000 
 5720000     1.032089  0.007344866    20.767098    22.307095 -1.6161623e-05      1000000 
 5730000    1.0215005  0.014365323    20.704796    22.236089 3.5733039e-05      1000000 
 5740000   0.91727894  0.031703532    20.784701    22.178564 -0.00020923896      1000000 
 5750000    1.1181683  0.023393072    20.695271    22.379144 -1.6199436e-05      1000000 
 5760000    1.1117203  0.040802227    20.739257    22.430964 9.2064604e-05      1000000 
 5770000    1.1020584  0.039953599    20.763216    22.439726 8.7686243e-06      1000000 
 5780000     1.102468  0.019215945    20.928273    22.584654 -0.00014577673      1000000 
 5790000   0.92149621  0.048574604    20.790448    22.207445 4.8173886e-05      1000000 
 5800000    1.1095896  0.086736142    20.742761    22.477238 3.5474093e-05      1000000 
 5810000   0.93419852   0.01181844      20.7276    22.126703 -2.1438402e-05      1000000 
 5820000    0.8805136  0.030962564    20.803849    22.142374 6.2941666e-05      1000000 
 5830000    1.0197131  0.021413515    20.817466    22.353154 -3.4911379e-05      1000000 
 5840000    0.9829355 0.0091452222      20.7745    22.243304 -8.7603656e-05      1000000 
 5850000    1.0991882  0.061290513    20.729072    22.422657 -0.00016888674      1000000 
 5860000    1.0127526 0.0057115419    20.768048    22.277697 -0.00013092423      1000000 
 5870000   0.94273813  0.024382738    20.733464    22.157813 3.7954143e-05      1000000 
 5880000    1.0047102 0.0043662142      20.8025    22.298861 7.7354858e-05      1000000 
 5890000   0.91994564  0.039644878     20.68574    22.091504 -2.0961175e-05      1000000 
 5900000   0.97361969 0.0085246855     20.70556    22.159909 -0.00013297744      1000000 
 5910000    1.0284263  0.031958368    20.770721    22.329892 -6.7646129e-05      1000000 
 5920000   0.95537091 0.0052371493     20.67948    22.103443 5.0961997e-05      1000000 
 5930000   0.97747621  0.014477722    20.742976    22.209006 -3.5636035e-06      1000000 
 5940000    1.0400813  0.059107431    20.753843    22.357471 0.00014217619      1000000 
 5950000    1.0646631 0.0090314576    20.805133    22.395189 -7.6890278e-05      1000000 
 5960000    1.1251495 0.0081016641    20.839477    22.518426 -2.7524982e-05      1000000 
 5970000      1.01853  0.075408822    20.803797    22.391722 1.4399586e-05      1000000 
 5980000    1.0438995  0.023735729    20.775356    22.349283 8.2717423e-05      1000000 
 5990000    1.1493857  0.012815359    20.855655    22.575308 -0.00010041016      1000000 
 6000000    1.0528671  0.015569817    20.746236    22.325314 -2.2771032e-05      1000000 
 6010000    1.1691468 0.0099990076    20.711682    22.457864 -0.00010458291      1000000 
 6020000     1.043269  0.041846895    20.784371    22.375472 -4.7395799e-05      1000000 
 6030000   0.95988969  0.028047293    20.859283    22.312767 5.6516697e-05      1000000 
 6040000    1.1404893 0.0052683124     20.68997    22.388865 -6.3102833e-05      1000000 
 6050000   0.95268728  0.032906069    20.846638    22.294285 -8.291347e-05      1000000 
 6060000    1.0527054  0.064147775    20.778718    22.406133 6.9802524e-05      1000000 
 6070000   0.94999412 0.0028256562    20.725501    22.139068 8.9647496e-06      1000000 
 6080000   0.98551144 0.0081124604    20.699013     22.17061 -3.6711621e-05      1000000 
 6090000    1.0896203  0.013680342    20.879681    22.511448 6.6964073e-06      1000000 
 6100000   0.97232139  0.050163908    20.724514    22.218576 -5.6405376e-05      1000000 
 6110000   0.98892592  0.049395154    20.677402    22.195352 4.5951181e-05      1000000 
 6120000   0.97085955  0.046136468    20.805623    22.293486 0.00021487899      1000000 
 6130000   0.97952718  0.067387753    20.691059    22.213045 0.00019590851      1000000 
 6140000   0.95370172  0.036256286    20.706135    22.158639 8.3302048e-05      1000000 
 6150000   0.91072476  0.016992296    20.605011     21.97443 1.9533686e-05      1000000 
 6160000   0.99388873  0.019092219    20.750145    22.245162 -8.6705164e-05      1000000 
 6170000    1.0227379  0.034878995    20.663402    22.217047 -0.00012329153      1000000 
 6180000    1.1799757  0.015283013    20.684813     22.45236 -2.661541e-05      1000000 
 6190000    1.0849008  0.003118772    20.821327    22.435523 -0.00022034375      1000000 
 6200000    1.0623618  0.031524429    20.851876    22.461008 0.00012771418      1000000 
 6210000    1.0597225  0.046800452    20.789491     22.40998 0.00010271351      1000000 
 6220000    1.2336677 0.0030499845    20.808293     22.64334 6.5673532e-05      1000000 
 6230000   0.90941717    0.0805022     20.78303    22.214017 0.00029991659      1000000 
 6240000    1.0269646  0.010982045    20.765647    22.301672 5.4799155e-05      1000000 
 6250000   0.99596137  0.017836215     20.70847    22.205309 0.00026102942      1000000 
 6260000    1.2008248  0.024875867    20.791411    22.599512 0.00022114816      1000000 
 6270000   0.93556683  0.032078813    20.743195    22.164591 0.00021281171      1000000 
 6280000   0.96915817  0.030479322    20.799335    22.269014 0.00011544891      1000000 
 6290000    1.2070301  0.070623384    20.649742    22.512806 -1.5173328e-05      1000000 
 6300000    1.0096959  0.017012353    20.888766    22.405177 -0.00021742168      1000000 
 6310000   0.94568907  0.004625951    20.625125    22.034099 4.615665e-05      1000000 
 6320000   0.94196127  0.027615227    20.725283     22.15171 -0.00014362855      1000000 
 6330000   0.94312111    0.0187871    20.640918     22.06024 -7.6845619e-05      1000000 
 6340000    1.0246608  0.020762386    20.932711    22.475095 -7.8102608e-05      1000000 
 6350000    1.0555176  0.028597514    20.833437    22.429479 -0.00024206683      1000000 
 6360000    1.0241423   0.02310729    20.757243    22.301201 7.5192666e-05      1000000 
 6370000    1.0125447  0.019151923    20.774185    22.296966 -0.00011597462      1000000 
 6380000   0.97051025 0.0064180074    20.771658    22.219284 -0.00015933391      1000000 
 6390000   0.89124739 0.0043075223    21.026646    22.354456 3.2383472e-05      1000000 
 6400000   0.89254628  0.016492881    20.721902    22.063826 0.00012616729      1000000 
 6410000   0.98608987  0.043035858    20.816565    22.323944 -2.0089704e-05      1000000 
 6420000   0.90536043  0.013533848     20.69913    22.057124 3.5416766e-05      1000000 
 6430000   0.89004505  0.044313339    20.753866    22.119897 -5.0553692e-05      1000000 
 6440000    1.0705468  0.026051335    20.864328    22.480141 -0.00017122622      1000000 
 6450000   0.92139767 0.0067267927    20.791142    22.166144 6.1444215e-06      1000000 
 6460000    0.8296205  0.030035882     20.87761    22.139632 1.2852354e-05      1000000 
 6470000    1.0166269  0.013414742    20.734865    22.257971 0.00015974902      1000000 
 6480000   0.99325146  0.034553588    20.738844    22.248376 -4.0888853e-05      1000000 
 6490000    1.0381227  0.021866457    20.762118    22.325597 6.7613076e-05      1000000 
 6500000   0.94814692  0.027147062    20.803762    22.238908 -9.2779884e-05      1000000 
 6510000   0.94304441  0.031631829    20.823017     22.25507 -5.1165166e-05      1000000 
 6520000    1.0967006  0.063523819    20.783023    22.475147 6.4088584e-06      1000000 
 6530000    1.0676308 0.0042797118    20.769961    22.359672 -0.00010393995      1000000 
 6540000    1.1007687  0.021189894    20.675991    22.331822 -6.2929965e-05      1000000 
 6550000    1.0369821 0.0084400342    20.804009    22.352367 -9.2576963e-05      1000000 
 6560000    1.0979622  0.021724123    20.866937    22.519135 1.0965476e-05      1000000 
 6570000   0.99447393 0.0036132399    20.863325    22.343732 -0.00013025584      1000000 
 6580000   0.99575788  0.021481629    20.778633    22.278816 0.00010993984      1000000 
 6590000   0.94440437 0.0055627535    20.688986     22.09699 7.459212e-05      1000000 
 6600000   0.96425112  0.015374502    20.878004    22.325292 -8.1068414e-05      1000000 
 6610000    1.1808596  0.030596949    20.904652    22.688825 0.00011637857      1000000 
 6620000    1.1014611 0.0067458528    20.641155    22.283571 6.0288615e-05      1000000 
 6630000     1.090714  0.016124336     20.63498    22.270815 -4.3572515e-05      1000000 
 6640000    0.8913742  0.044609021     20.80288     22.17118 -2.2696835e-05      1000000 
 6650000   0.92810311  0.034636912    21.007307    22.420177 -8.6217807e-05      1000000 
 6660000   0.98018435  0.022664514     20.89384    22.372078 8.8490886e-05      1000000 
 6670000    1.0117759  0.056769879    20.755611    22.314868 -7.9824187e-06      1000000 
 6680000   0.97941919  0.048262522    20.761274    22.263974 0.00012716204      1000000 
 6690000    1.0060204  0.014794884    20.715501    22.224236 6.4392368e-05      1000000 
 6700000   0.87682514  0.035722022    20.759666    22.097474 0.00017516937      1000000 
 6710000   0.99516488  0.014241538    20.734641    22.226702 8.536283e-06      1000000 
 6720000    0.9299127  0.038857802    20.697444    22.117222 9.2021614e-05      1000000 
 6730000   0.95499656  0.027708706     20.75375    22.199628 -1.2838468e-05      1000000 
 6740000   0.92657263  0.028612951    20.753822    22.158395 1.4756236e-05      1000000 
 6750000    0.9412744  0.016877001    20.771009    22.185679 -8.4877967e-05      1000000 
 6760000     1.006917  0.033909823    20.792567    22.321748 -2.2804953e-05      1000000 
 6770000    1.0105052  0.026564459    20.792806     22.31997 -5.307981e-05      1000000 
 6780000    0.9349156  0.028022264    20.767871    22.184243 6.9450674e-05      1000000 
 6790000      0.96768  0.003670506    20.828751    22.269426 9.8430643e-05      1000000 
 6800000    1.0413711  0.033525386    20.748709    22.328671 5.473279e-05      1000000 
 6810000   0.91498517  0.029175643    20.653374    22.041303 0.00019060168      1000000 
 6820000   0.99866002  0.021013561    20.798533    22.302556 -0.00014859162      1000000 
 6830000    0.9040287  0.013440175    20.829365    22.185287 -0.00013266696      1000000 
 6840000    1.1127158  0.016635113    20.613826    22.282844 9.4031457e-06      1000000 
 6850000   0.83906423  0.056691273    20.752529    22.055231 8.6399038e-05      1000000 
 6860000   0.90947211  0.018340764    20.701858    22.070765 2.473525e-05      1000000 
 6870000    1.0465577  0.014710919    20.655711     22.22456 0.0001086219      1000000 
 6880000    1.0018931   0.01216873     20.82018     22.32016 0.00013419121      1000000 
 6890000    1.0854662 0.0054384909    20.620926    22.238282 2.1098939e-05      1000000 
 6900000    1.0632294  0.055360406    20.758184     22.39244 2.5818032e-05      1000000 
 6910000    1.0092191  0.042819699    20.650846    22.192356 3.4341246e-05      1000000 
 6920000   0.91587938  0.031475289    20.853662    22.245219 -0.00013245197      1000000 
 6930000   0.98812191  0.067651017    20.693845    22.228857 -5.7356623e-05      1000000 
 6940000    1.0087019  0.021562106    20.783235     22.30272 8.3681668e-05      1000000 
 6950000   0.99108236 0.0072670669    20.902634    22.381659 -0.00011122449      1000000 
 6960000   0.94288069 0.00021389125    20.813731    22.214123 -0.000102202      1000000 
 6970000   0.94060152   0.02776786    20.807492    22.232053 -5.5542743e-05      1000000 
 6980000    1.0416446  0.036381748    20.764009    22.347233 -5.7960793e-05      1000000 
 6990000   0.98784839  0.050063797    20.757922    22.274941 -5.3334558e-05      1000000 
 7000000    1.1970777  0.035872566     20.82995    22.643483 -7.7475767e-05      1000000 
 7010000    1.1592466  0.043214137    20.687125     22.45182 0.00021037216      1000000 
 7020000    1.1301974  0.032612828    20.714657    22.425613 2.2896837e-05      1000000 
 7030000   0.95862107   0.01711352    20.768834      22.2095 -6.8822762e-05      1000000 
 7040000    1.0240315  0.045821459    20.654345    22.220853 -2.5592509e-05      1000000 
 7050000    1.0393612 0.0074756186    20.591888    22.142815 -3.0354361e-05      1000000 
 7060000   0.92251152 0.00099426385    20.768294    22.139217 -0.00026984357      1000000 
 7070000    1.0135916  0.047782998     20.86965    22.422616 -0.00014462912      1000000 
 7080000   0.94631831  0.020513588    20.767175    22.192971 1.4856979e-05      1000000 
 7090000   0.95443549   0.01500113    20.907905    22.340243 -1.9664892e-05      1000000 
 7100000    1.0734449  0.043729109    20.646432    22.284227 0.00019805249      1000000 
 7110000   0.95047578  0.051513228    20.668849    22.131819 6.053315e-05      1000000 
 7120000   0.93503679 0.0083876123    20.758863     22.15578 -0.00019387046      1000000 
 7130000   0.91270145  0.021470795    20.785993    22.162825 0.00010053439      1000000 
 7140000   0.95676885  0.040122098    20.839371    22.300295 -2.4021418e-05      1000000 
 7150000    1.0975417  0.013900406    20.890979    22.534728 -0.0001494653      1000000 
 7160000   0.90217132  0.040051872    20.749088    22.128864 8.6172355e-05      1000000 
 7170000    1.0412878  0.016375725    20.721283    22.283971 -0.000141942      1000000 
 7180000    1.0317033  0.033630752    20.804424    22.370134 -0.00014555773      1000000 
 7190000   0.98760084 0.0020092111    20.659989    22.128586 -6.7262643e-05      1000000 
 7200000   0.97760503  0.011417844    20.856914    22.320075 5.6636454e-05      1000000 
 7210000   0.88848131  0.033593839    20.749078    22.102066 5.5269479e-05      1000000 
 7220000    1.0428891  0.059927647    20.637561    22.246179 6.6095393e-05      1000000 
 7230000    1.1123549  0.015350243    20.763775    22.430972 4.3535226e-05      1000000 
 7240000    1.0569296   0.03784254    20.832013    22.439396 4.4667184e-05      1000000 
 7250000   0.93379558  0.032451313    20.734169    22.153307 0.00026403241      1000000 
 7260000    1.0305074  0.014646608    20.786301    22.331251 3.5755148e-05      1000000 
 7270000    1.1427637 0.0088787978    20.712303    22.418185 1.4061699e-05      1000000 
 7280000    1.0090742  0.030231891    20.787442    22.316149 8.4267637e-05      1000000 
 7290000   0.93055558 0.0086657045     20.81453    22.205071 -9.2281486e-05      1000000 
 7300000    1.0256481  0.017039041    20.695681    22.235807 -2.0426258e-06      1000000 
 7310000    0.9903996  0.013090988    20.670241    22.154075 0.00010293026      1000000 
 7320000    1.0152084  0.034824068     20.68131    22.223718 -0.00010557891      1000000 
 7330000    1.0189683  0.024521283    20.727445    22.265134 -0.00013514684      1000000 
 7340000    1.0652261   0.03515622      20.7798    22.396817 -1.1257641e-05      1000000 
 7350000   0.93052844  0.020429921    20.707139    22.109403 -3.1017162e-05      1000000 
 7360000   0.92415615  0.059754792    20.730715    22.162842 5.2128964e-05      1000000 
 7370000    1.1121925   0.05543271    20.873645    22.580683 -1.0014676e-05      1000000 
 7380000    1.0301067 0.0093612215     20.84057     22.37964 4.2598806e-05      1000000 
 7390000   0.94406153  0.017890755    20.760525    22.180347 1.0576479e-05      1000000 
 7400000   0.97430525  0.028260056    20.819245    22.294348 5.9897764e-06      1000000 
 7410000    1.0086804  0.024359711    20.819063    22.341313 1.0805027e-06      1000000 
 7420000   0.98453735  0.050191306    20.726612    22.238842 -4.8204035e-05      1000000 
 7430000   0.98926263  0.039659703    20.836699    22.345414 -0.00020802221      1000000 
 7440000   0.86358832  0.027722465    20.647042    21.957193 4.051151e-05      1000000 
 7450000    1.0039894  0.014239409    20.686201    22.191365 -7.6967631e-05      1000000 
 7460000    1.0012084  0.011519936    20.747208    22.245522 0.00013561145      1000000 
 7470000   0.99003403  0.022686954    20.765077    22.257964 0.00010725224      1000000 
 7480000    1.0004983  0.031676581    20.720775    22.238192 5.1812015e-05      1000000 
 7490000   0.98977907  0.018904898    20.756831    22.245558 -0.00021122641      1000000 
 7500000   0.94464741 0.0076743998    20.889005    22.299481 4.3588496e-05      1000000 
 7510000   0.85708567  0.041283098    20.742762    22.056817 4.0157394e-05      1000000 
 7520000   0.95277484   0.03719857    20.805111     22.25718 -0.00011099543      1000000 
 7530000    0.9353924  0.015190146    20.694417    22.098665 0.00018793816      1000000 
 7540000    1.0480722  0.011432441    20.645257    22.213077 -2.5810631e-06      1000000 
 7550000    1.0550659  0.012092816    20.756371    22.335237 7.9634168e-05      1000000 
 7560000    1.0823714  0.044574803    20.788691    22.440587 -7.3219482e-05      1000000 
 7570000    1.0829118 0.0060960317    20.689999    22.304219 4.5333189e-05      1000000 
 7580000   0.95600676 0.00088763387    20.681193    22.101751 -0.00014678358      1000000 
 7590000    1.1624217  0.080169572    20.806838    22.613204 0.00014403687      1000000 
 7600000    1.0341104  0.011309449    20.719085    22.266048 -0.00012854883      1000000 
 7610000     1.044777  0.050006028     20.73533     22.33683 0.00028307078      1000000 
 7620000    1.0616247  0.023025922    20.837319    22.436858 4.0227673e-05      1000000 
 7630000   0.96221228 0.0077224167    20.694012     22.13062 3.8478806e-05      1000000 
 7640000   0.97837931  0.017982735    20.665891    22.136767 6.2374022e-05      1000000 
 7650000    1.0037613  0.011887952    20.612519    22.114992 -2.5539468e-05      1000000 
 7660000    1.1182962  0.024524293    20.766422    22.451616 -0.00022372346      1000000 
 7670000   0.90709243 0.0092518073    20.712687    22.068971 -9.8504006e-05      1000000 
 7680000   0.85515796   0.04281421    20.876692    22.189416 -7.4588294e-05      1000000 
 7690000   0.89435375 0.0089820991    20.810524    22.147622 -0.00017680041      1000000 
 7700000   0.93063038  0.019490436    20.780805    22.182281 5.8446515e-05      1000000 
 7710000    1.0356044 4.2976305e-05    20.741786    22.279702 -5.1262861e-05      1000000 
 7720000    1.1053558   0.01453077    20.614853    22.270837 0.00011061671      1000000 
 7730000     0.857749  0.011780217    20.736257    22.021795 -0.00013895219      1000000 
 7740000    1.0161421   0.04862631     20.74179    22.299387 -9.2527143e-05      1000000 
 7750000   0.96016057  0.017313921     20.71987    22.163023 -9.6583708e-05      1000000 
 7760000     1.016662  0.018570801    20.680366     22.20868 1.8113069e-06      1000000 
 7770000    1.1312977 0.0033496436    20.702714     22.38604 5.0913831e-05      1000000 
 7780000    1.0143577    0.0308282    20.735399    22.272548 -6.4054187e-05      1000000 
 7790000    0.9887488  0.018690457    20.706213    22.193195 1.5179061e-05      1000000 
 7800000   0.91074333  0.016311989    20.759249    22.128015 -5.4122153e-05      1000000 
 7810000   0.95488628  0.043530748    20.761495    22.223032 1.1860172e-05      1000000 
 7820000   0.93266704  0.088133696    20.665823    22.138967 0.00025517784      1000000 
 7830000    1.0009203  0.042771006    20.741817    22.270954 -5.771505e-05      1000000 
 7840000    1.0715836  0.012615156    20.944839    22.548756 1.249647e-05      1000000 
 7850000    1.0232764  0.055950119    20.705559    22.281075 1.5139327e-05      1000000 
 7860000   0.95022709  0.006472225    20.774754    22.192313 -3.8389308e-05      1000000 
 7870000   0.98681407   0.03470112    20.735827    22.235947 -3.5858466e-05      1000000 
 7880000   0.78387918 0.0095353184    20.765501    21.939097 -0.00014013376      1000000 
 7890000    1.1583441  0.058647005    20.824641    22.603429 -5.8927714e-05      1000000 
 7900000    1.0733816  0.063493451    20.747006    22.404471 -9.2250647e-05      1000000 
 7910000   0.98356101  0.011924392    20.580488       22.053 2.0336706e-05      1000000 
 7920000   0.96407886  0.050796055    20.829835    22.312288 2.9139137e-05      1000000 
 7930000   0.92183851   0.03415457    20.789554    22.192639 -5.1102475e-05      1000000 
 7940000    1.1533008   0.00608907    20.769431    22.488172 -2.3375741e-05      1000000 
 7950000   0.96367267  0.022960246    20.674261    22.128275 -2.825776e-05      1000000 
 7960000    1.0817131  0.029471883    20.697659    22.333475 0.0001173174      1000000 
 7970000    1.1295113   0.01458148    20.692653    22.384559 4.3955642e-05      1000000 
 7980000    1.0494493 0.0090324125    20.741645     22.30911 -5.4777223e-06      1000000 
 7990000   0.97921809  0.029403026    20.802522    22.286063 -6.2895093e-05      1000000 
 8000000   0.97015309   0.02422298    20.739424    22.204325 -6.391795e-05      1000000 
 8010000   0.95320612  0.034925366    20.634414    22.084851 -0.00010305219      1000000 
 8020000   0.99908127  0.029556751      20.7059    22.219092 8.9695319e-05      1000000 
 8030000   0.97348235  0.068272946    20.705354    22.219248 0.00022984723      1000000 
 8040000    1.0147207  0.028890528    20.745424    22.281175 -1.3927241e-05      1000000 
 8050000   0.90026879  0.013069673    20.772641     22.12261 4.0647506e-05      1000000 
 8060000    1.0067945  0.027730791     20.70946     22.23228 0.00016359289      1000000 
 8070000    1.0100812  0.007237422    20.741261    22.248469 0.0001515104      1000000 
 8080000   0.88268378  0.022755392    20.783147    22.116688 -0.00012547334      1000000 
 8090000    1.1444964  0.036760453    20.702355    22.438692 -4.5823736e-06      1000000 
 8100000    1.1602805  0.031325007    20.741116    22.495458 4.4815756e-05      1000000 
 8110000     1.053129  0.034374392    20.847351    22.445622 -5.4187352e-05      1000000 
 8120000   0.89162072  0.015562236    20.734961     22.07458 -4.5789478e-06      1000000 
 8130000   0.90541223  0.033393937    20.684587    22.062518 -4.3972023e-05      1000000 
 8140000    1.0755733 0.0007418888    20.630441    22.228409 3.048991e-05      1000000 
 8150000   0.96323442  0.015909478    20.619351    22.065664 2.7313908e-05      1000000 
 8160000    1.2585201 0.0073564407    20.795021     22.67128 -1.0775678e-05      1000000 
 8170000   0.83097681   0.02599033    20.707361    21.967352 -1.954805e-05      1000000 
 8180000    1.0066895  0.014475205    20.809693    22.319102 0.00013575139      1000000 
 8190000    1.0594186  0.023091322     20.85262    22.448948 -3.1453516e-05      1000000 
 8200000   0.93820794  0.037189081    20.733785    22.164213 -5.7138245e-05      1000000 
 8210000    1.0371399  0.024046284    20.775457    22.339656 -0.00013592418      1000000 
 8220000   0.93972268  0.028523935    20.898825    22.322837 9.2955791e-05      1000000 
 8230000    1.1670225  0.028046965     20.89572    22.656796 -6.3831917e-05      1000000 
 8240000    0.9263548  0.053336061     20.65811    22.087082 -4.3905782e-05      1000000 
 8250000    1.0523091   0.01618232    20.775341    22.354203 9.9364497e-05      1000000 
 8260000    1.0403192 0.0037898238    20.742572    22.291236 0.0001665046      1000000 
 8270000   0.96160227 0.0053214112     20.63533    22.068631 7.1691757e-06      1000000 
 8280000    1.0312608 0.0018912306    20.701605    22.234918 0.00022366526      1000000 
 8290000   0.97582448  0.025798098    20.785496    22.260393 3.9918823e-05      1000000 
 8300000   0.96299368  0.035390413    20.727622    22.193058 -1.6389369e-05      1000000 
 8310000    1.0449508  0.012572288    20.738138    22.302463 -4.2449509e-05      1000000 
 8320000    1.1086314  0.011105207    20.727099    22.384521 -0.00015637601      1000000 
 8330000    1.0139551  0.021168423    20.646638     22.17353 -3.2751954e-05      1000000 
 8340000   0.99827967  0.015952816    20.707914    22.206312 -0.00011911661      1000000 
 8350000    1.0364809 0.0067075687    20.730457    22.276339 -7.4786871e-05      1000000 
 8360000    1.1621003  0.069800362    20.834087    22.629607 0.00019865533      1000000 
 8370000    1.0555715  0.042654126    20.761434    22.371612 0.0001365691      1000000 
 8380000     1.074971   0.00868029    20.729675    22.334687 -4.9137547e-05      1000000 
 8390000   0.96625656   0.03336196    20.574663    22.042916 9.9850118e-05      1000000 
 8400000     1.030956  0.026321188    20.947599    22.504889 -2.1116102e-05      1000000 
 8410000   0.93556271 0.0090828667     20.80835    22.206743 0.00013852085      1000000 
 8420000    1.0732938   0.02505536    20.816106    22.435002 6.3187955e-05      1000000 
 8430000    1.0080618   0.01729484    20.801905    22.316171 -2.5776329e-05      1000000 
 8440000   0.98090238 0.0084268392    20.780707    22.245774 0.0001112814      1000000 
 8450000   0.95669983 0.0003549019    20.935282    22.356336 0.00011657691      1000000 
 8460000   0.95530937  0.015241596    20.720204     22.15408 8.2070855e-05      1000000 
 8470000    1.0401375  0.030773741    20.691603    22.266981 -8.3350363e-05      1000000 
 8480000    1.0179343  0.065229003    20.883162    22.460023 -3.2427199e-05      1000000 
 8490000    1.1006028  0.046135259    20.827079     22.50761 4.2093192e-05      1000000 
 8500000    1.0279889  0.022031792    20.652275    22.200871 -4.9492204e-05      1000000 
 8510000    1.0059731   0.02710509    20.856902    22.377877 0.00015385397      1000000 
 8520000    1.0816463  0.041020512    20.768145     22.41541 -1.211356e-05      1000000 
 8530000   0.96974218 0.0076845802    20.651392    22.099144 -0.00012952657      1000000 
 8540000   0.88354833  0.051808848    20.664341    22.028219 8.891055e-05      1000000 
 8550000   0.91559936  0.031063368    20.674636    22.065364 -0.00013085389      1000000 
 8560000    1.1729619  0.013809849    20.699995    22.455653 6.9293198e-05      1000000 
 8570000    1.0400559  0.024881178    20.755537    22.324901 -0.0001241067      1000000 
 8580000    1.1975311  0.017884205    20.858146    22.654364 -8.6295864e-05      1000000 
 8590000   0.95467763  0.021016209    20.698655    22.137367 0.00018357022      1000000 
 8600000    1.1695712   0.04356048    20.693477    22.473851 6.2348319e-05      1000000 
 8610000    1.0121509  0.015793033    20.787897    22.306734 5.1299957e-06      1000000 
 8620000    0.9581154  0.010687456    20.722004    22.155493 -1.5245046e-05      1000000 
 8630000   0.96220253  0.017863999    20.611547    22.058282 2.5438603e-05      1000000 
 8640000    1.0207479   0.02499499    20.761315    22.302121 0.00012911728      1000000 
 8650000    1.0185198   0.01744704    20.701819    22.231768 -2.9805542e-05      1000000 
 8660000    1.0499173  0.045183402    20.845994    22.450305 3.5817851e-05      1000000 
 8670000   0.80332366  0.034328627    20.666957    21.894222 5.0790041e-05      1000000 
 8680000     1.071591  0.011435882    20.688585    22.291334 -3.794566e-05      1000000 
 8690000    1.1046645  0.015826932     20.63832    22.294574 -9.5835146e-05      1000000 
 8700000    1.0045271 0.0087197101    20.738504    22.238947 -8.8808835e-05      1000000 
 8710000   0.90155553 0.0076169551    20.722223     22.06865 6.634942e-05      1000000 
 8720000     1.046904  0.032214485    20.735179    22.322046 1.3973963e-05      1000000 
 8730000    1.0678308  0.024865028    20.806015    22.416608 -5.1358737e-06      1000000 
 8740000    0.9846036  0.018960727    20.838942    22.320039 7.0872935e-05      1000000 
 8750000    1.1052629  0.013593961    20.704127    22.359036 0.00011610733      1000000 
 8760000    0.9583849  0.027736966    20.930583    22.381521 -5.4313382e-05      1000000 
 8770000     1.010421  0.016439791     20.68273    22.199644 0.00011227876      1000000 
 8780000    1.0504414  0.013868966    20.781726      22.3555 -0.00011563413      1000000 
 8790000    1.0523974  0.029338734    20.902351      22.4945 -0.00028321447      1000000 
 8800000     1.176821  0.022540441    20.641814    22.411934 1.6572002e-06      1000000 
 8810000   0.93965024  0.015339601    20.852247    22.262967 0.00021278987      1000000 
 8820000    1.0333318  0.040441287    20.824849    22.399788 -2.7055559e-06      1000000 
 8830000    1.1172422   0.05335938    20.821913    22.534377 0.00011898825      1000000 
 8840000   0.97023915   0.02346685    20.755755    22.220027 -1.9529664e-05      1000000 
 8850000    1.0604329  0.002779612    20.728689    22.306211 -9.9085315e-05      1000000 
 8860000   0.86549017 0.0050883615    20.636751    21.927092 6.0775515e-05      1000000 
 8870000    1.0188475  0.025607221    20.665249    22.203845 -0.00016808868      1000000 
 8880000     1.082203  0.011744941    20.790231    22.409047  8.60417e-05      1000000 
 8890000   0.96854138   0.02602394     20.65674    22.121048 -8.4573767e-05      1000000 
 8900000    1.0000336  0.037435607    20.743228    22.265714 0.00015545134      1000000 
 8910000    1.0411364  0.013532207    20.862506    22.422126 -6.1360183e-05      1000000 
 8920000    1.0530401  0.030317085    20.834144    22.428226 -0.00015325451      1000000 
 8930000   0.96258227 0.0079116581    20.690266    22.127612 -2.2422277e-05      1000000 
 8940000    1.0957733  0.021249977    20.888168    22.536641 -0.00021538334      1000000 
 8950000    1.0585058  0.018479125     20.79393     22.38429 6.9142364e-07      1000000 
 8960000    1.0204094  0.032597216    20.820731    22.368636 0.00011980215      1000000 
 8970000   0.95511093  0.051494332     20.70826    22.178094 -0.00011127552      1000000 
 8980000   0.91190259  0.031121621    20.840922    22.226219 -8.5122504e-05      1000000 
 8990000   0.96565733  0.019206615    20.717531    22.170738 1.2287588e-05      1000000 
 9000000   0.96704793   0.06046866    20.528025     22.02456 2.6245803e-05      1000000 
 9010000   0.83518909 0.0039295339    20.744203    21.988388 8.127894e-05      1000000 
 9020000   0.99539207  0.022636184    20.730012    22.230806 9.3631873e-06      1000000 
 9030000    1.0360499  0.047253646    20.738114    22.323901 6.5345324e-05      1000000 
 9040000    1.0576278  0.027905558    20.694927    22.293409 3.9121578e-05      1000000 
 9050000   0.96461179  0.017487093    20.709877    22.159813 4.6942243e-05      1000000 
 9060000   0.91066228  0.020660983    20.744059    22.117053 -0.00014882268      1000000 
 9070000   0.98858002  0.043992283    20.824098    22.336132 -5.6005351e-05      1000000 
 9080000    0.9517329  0.027088791    20.913602    22.354014 -0.00042874325      1000000 
 9090000     1.132878  0.020804477     20.84614    22.549268 0.00013632417      1000000 
 9100000   0.90883291  0.019951727    20.818286    22.187855 0.00029245067      1000000 
 9110000      1.07577  0.010239904    20.731702     22.33946 1.9343979e-05      1000000 
 9120000    1.0835974  0.014811765    20.858046       22.482 -0.00014594277      1000000 
 9130000   0.97406948   0.02549051    20.706298    22.178282 -9.8352775e-05      1000000 
 9140000   0.90608213 0.0051421281    20.727282    22.077956 -0.00015665943      1000000 
 9150000     1.011862  0.017149427    20.680224    22.199988 -2.7048233e-06      1000000 
 9160000    1.0319545   0.03739312    20.778331    22.348177 -3.9470891e-05      1000000 
 9170000    1.0926053  0.021615619    20.630938    22.275072 0.00014109949      1000000 
 9180000    1.0568142  0.014230673     20.61012     22.19372  4.26587e-05      1000000 
 9190000   0.87324978  0.011641287    20.795317    22.103734 0.00015609699      1000000 
 9200000    1.0199936  0.038591367    20.650341    22.203623 6.2589982e-05      1000000 
 9210000   0.98798367  0.011281392    20.786312     22.26475 2.1702237e-05      1000000 
 9220000    1.0160599  0.068516209     20.75964    22.337005 -1.5747995e-05      1000000 
 9230000   0.94065997  0.023918911    20.804824    22.225623 0.00016416359      1000000 
 9240000    0.9184546 0.0086886503    20.835805    22.208399 -0.0001921011      1000000 
 9250000    1.0266527  0.032888796    20.745851    22.303319 -7.3300086e-05      1000000 
 9260000   0.86788351  0.029709999    20.735892    22.054409 8.6601934e-06      1000000 
 9270000   0.83111235  0.023781164    20.743568    22.001551 -7.0976146e-05      1000000 
 9280000    1.0317809 0.0058005476    20.745359    22.283354 -3.391832e-05      1000000 
 9290000    0.9545239 0.0082698329    20.761807    22.187545 -4.9009864e-05      1000000 
 9300000    1.0505747  0.017548227    20.717587    22.295238 1.3725719e-05      1000000 
 9310000   0.96604827 0.0019862852    20.891008    22.327576 -0.00020827587      1000000 
 9320000   0.94745089  0.001104522    20.695868    22.103938 -6.421722e-05      1000000 
 9330000   0.95759237  0.023263211    20.635512    22.080799 -2.0756729e-05      1000000 
 9340000    1.0999315  0.010764561    20.669208     22.31337 -0.00012926746      1000000 
 9350000   0.96944125 0.0070189837    20.834761      22.2814 -0.00022040803      1000000 
 9360000    1.0620985  0.056032912    20.801397    22.434646 4.517276e-05      1000000 
 9370000    0.9923122  0.053151141    20.714703    22.241438 0.00011659879      1000000 
 9380000    1.0699688  0.052758521    20.710575    22.352237 6.002977e-05      1000000 
 9390000   0.76778581  0.011045809    20.824991    21.976199 -0.00017482587      1000000 
 9400000    1.2168777  0.031588723    20.765982    22.604634 -7.5321947e-05      1000000 
 9410000   0.95290966  0.015508669    20.743819    22.174399 -8.2350183e-05      1000000 
 9420000   0.91051298  0.059043949    20.715525    22.126681 0.00014485614      1000000 
 9430000    1.0343835  0.011175213    20.703889    22.251124 0.00010037764      1000000 
 9440000   0.84131531 0.0083317962    20.694931    21.952616 0.00010180136      1000000 
 9450000   0.97626127  0.030004522    20.866938    22.346691 -5.7333999e-06      1000000 
 9460000   0.92106728  0.021447625    20.829758     22.21899 0.00023567284      1000000 
 9470000    0.9921716 0.0098330611    20.784271    22.267479 -7.6268961e-05      1000000 
 9480000   0.98266557  0.009764968    20.694687     22.16371 4.3177734e-05      1000000 
 9490000     1.130705  0.056386016    20.706162    22.441645 0.00014271072      1000000 
 9500000    1.0884154  0.014880491    20.851571    22.482749 2.3869692e-05      1000000 
 9510000   0.93418311  0.036045722    20.698682     22.12199 5.2065069e-05      1000000 
 9520000   0.92254798  0.014216978     20.81432    22.198521 5.4993566e-05      1000000 
 9530000    1.0095789  0.029998403    20.793231    22.322454 -2.3626853e-05      1000000 
 9540000    1.1121983  0.014375116    20.768438    22.434428 2.5768527e-05      1000000 
 9550000    1.0084284  0.026513175    20.824892    22.348921 3.9324684e-05      1000000 
 9560000    1.1807431  0.030749064    20.823647      22.6078 -0.0001372269      1000000 
 9570000    1.0879003 0.0074819136      20.7943    22.417314 -9.8832218e-05      1000000 
 9580000    1.0776046 0.0024536224    20.726727    22.329424 -9.4181466e-05      1000000 
 9590000    1.1103058  0.029222325     20.82192    22.499946 0.00015968604      1000000 
 9600000    1.0162712 0.0095205603    20.651121    22.169804 7.7169337e-05      1000000 
 9610000   0.99234295  0.050535282    20.761713    22.285878 -0.00013020267      1000000 
 9620000    1.2134782  0.042862766    20.632462     22.47734 0.00018326296      1000000 
 9630000    1.0203846   0.01780335    20.735257    22.268332 -4.4710538e-05      1000000 
 9640000   0.86537215  0.024720335    20.790949    22.100747 8.2204742e-05      1000000 
 9650000    1.0515363 0.0007925813    20.682774    22.245098 -9.3874627e-05      1000000 
 9660000   0.90675402  0.022683132    20.690075    22.059288 -3.5396545e-05      1000000 
 9670000    1.0819737  0.013047278    20.796898    22.416676 0.0001695998      1000000 
 9680000    1.0350784  0.031964707    20.718255    22.287311 -9.2106118e-05      1000000 
 9690000   0.89987138  0.018241439    20.735761    22.090312 -9.3014147e-05      1000000 
 9700000   0.91876711  0.024659624    20.810221    22.199249 -3.4464873e-05      1000000 
 9710000   0.97316553  0.017206659    20.696348    22.158705 -0.00014045397      1000000 
 9720000    1.1842882  0.029185385    20.712507     22.50036 0.00010590521      1000000 
 9730000   0.91327152 0.0005771211     20.56421    21.920996 0.00014892921      1000000 
 9740000    1.0353525  0.081637337     20.87078    22.489916 7.6159596e-05      1000000 
 9750000    1.0184302   0.05975621    20.643928    22.216054 0.00016050891      1000000 
 9760000    1.0133091  0.034929841    20.891645    22.431339 0.00014052238      1000000 
 9770000   0.99408412  0.026960238    20.677863    22.181038 -4.5419614e-05      1000000 
 9780000   0.85380177   0.01534523    20.749846    22.033087 3.8960703e-05      1000000 
 9790000   0.93010928  0.028082178     20.74495    22.154244 7.0972286e-05      1000000 
 9800000   0.91637234  0.027073439    20.795406    22.183292 -7.1223637e-05      1000000 
 9810000    1.0274827  0.057038545    20.742882    22.325732 1.6801764e-05      1000000 
 9820000    1.1335014  0.024989085     20.71267    22.420908 -2.8346738e-05      1000000 
 9830000   0.97088909  0.018417983    20.822411      22.2826 7.6044111e-05      1000000 
 9840000    1.1323111 0.0082892841    20.870023    22.559794 -7.779108e-06      1000000 
 9850000    0.9534554   0.03179337    20.777349    22.225023 -7.2329617e-05      1000000 
 9860000   0.91123364  0.025231433    20.743521    22.121935 -0.00016124155      1000000 
 9870000   0.93211032  0.013282654    20.951958    22.349425 2.8659619e-05      1000000 
 9880000   0.94491756  0.030456879    20.772807    22.206467 -1.7504674e-05      1000000 
 9890000    1.0040722 0.0063824685    20.725636    22.223066 -9.0445108e-05      1000000 
 9900000   0.97989225 0.0022196793    20.795941      22.2533 0.00017528875      1000000 
 9910000   0.83638766  0.019928098    20.644335    21.906298 -2.9224475e-05      1000000 
 9920000   0.98484089  0.031414862     20.68304    22.176944 -3.6715375e-05      1000000 
 9930000    1.1384323  0.053452723      20.6999    22.443925 7.9809251e-05      1000000 
 9940000   0.91552049  0.011046179    20.769039    22.139633 6.4087335e-05      1000000 
 9950000    1.2217649  0.036504942    20.800228    22.651054 -2.9270217e-05      1000000 
 9960000   0.98899761  0.028282595    20.671333    22.168277 1.5430398e-05      1000000 
 9970000    1.0525571  0.036946143    20.627763    22.227757 8.8543022e-05      1000000 
 9980000    1.0530221  0.017950402    20.729131     22.31082 7.3206413e-05      1000000 
 9990000    1.0144837  0.020026914    20.699047    22.225582 -7.7176508e-05      1000000 
10000000    1.1355548  0.029963221    20.715293    22.431555 0.00010301596      1000000 
Loop time of 369.064 on 1 procs for 10000000 steps with 100 atoms

Performance: 23410555.073 tau/day, 27095.550 timesteps/s
99.5% CPU use with 1 MPI tasks x 1 OpenMP threads

MPI task timing breakdown:
Section |  min time  |  avg time  |  max time  |%varavg| %total
---------------------------------------------------------------
Pair    | 38.416     | 38.416     | 38.416     |   0.0 | 10.41
Bond    | 30.89      | 30.89      | 30.89      |   0.0 |  8.37
Neigh   | 110.63     | 110.63     | 110.63     |   0.0 | 29.97
Comm    | 9.785      | 9.785      | 9.785      |   0.0 |  2.65
Output  | 1.514      | 1.514      | 1.514      |   0.0 |  0.41
Modify  | 169.39     | 169.39     | 169.39     |   0.0 | 45.90
Other   |            | 8.447      |            |       |  2.29

Nlocal:        100.000 ave         100 max         100 min
Histogram: 1 0 0 0 0 0 0 0 0 0
Nghost:         0.00000 ave           0 max           0 min
Histogram: 1 0 0 0 0 0 0 0 0 0
Neighs:        556.000 ave         556 max         556 min
Histogram: 1 0 0 0 0 0 0 0 0 0

Total # of neighbors = 556
Ave neighs/atom = 5.5600000
Ave special neighs/atom = 2.0000000
Neighbor list builds = 253802
Dangerous builds = 0
System init for write_data ...
WARNING: Not all mixed pair coeffs generated from mixing. Use write_data with 'pair ij' option to store all pair coeffs. (src/write_data.cpp:312)
Total wall time: 0:08:02
