ITEM: TIMESTEP
0
ITEM: NUMBER OF ATOMS
100
ITEM: BOX BOUNDS ff ff ff
-5.0000000000000000e+01 5.0000000000000000e+01
-5.0000000000000000e+01 5.0000000000000000e+01
-5.0000000000000000e+01 5.0000000000000000e+01
ITEM: ATOMS id type x y z
180 1 -2.38825 -0.414819 -13.0825
181 1 -1.52695 -0.678485 -12.97
179 1 -1.78526 0.0907944 -13.6725
178 1 -1.02435 0.648442 -13.6883
177 1 -1.49416 1.23851 -13.1028
176 1 -1.6081 2.20841 -12.8242
168 1 -1.63494 -2.75326 -11.334
167 1 -0.827893 -3.11696 -10.9412
169 1 -1.52047 -1.79598 -11.4499
170 1 -2.12653 -1.03039 -11.5137
182 1 -0.849587 -0.181492 -12.4684
171 1 -1.55411 -0.378286 -10.9812
184 1 0.0938142 -0.702529 -11.2114
183 1 0.0414373 -0.463919 -12.1425
172 1 -1.07697 0.451273 -11.1733
173 1 -0.742376 1.3636 -11.1311
174 1 -0.486469 1.07467 -12.0831
175 1 -1.07318 1.82207 -12.0956
166 1 -0.384845 -2.59424 -10.234
165 1 -0.368866 -2.09557 -9.40515
164 1 -0.976525 -1.40159 -9.59318
185 1 0.7344 -0.152026 -10.7555
187 1 -0.451046 0.536023 -9.45661
186 1 0.398671 0.41891 -9.94164
12 1 -1.54411 -1.96146 -8.66897
30 1 2.51127 -2.63362 -8.23912
29 1 2.59192 -1.65974 -8.4173
13 1 -1.44799 -1.26646 -7.97622
163 1 -0.0359667 -1.2023 -9.23116
162 1 0.134935 -0.422875 -8.6106
26 1 1.54057 -0.997831 -7.82079
27 1 1.4373 -1.00134 -8.80578
28 1 2.35711 -0.750706 -8.73876
188 1 -0.154494 1.28413 -8.90648
189 1 0.0394217 1.35984 -7.94947
161 1 0.924014 0.11877 -8.58143
160 1 1.70523 0.162683 -7.9844
31 1 2.32433 -3.45345 -7.75476
11 1 -1.53089 -2.23301 -7.71556
10 1 -0.685357 -2.38237 -7.30042
9 1 -0.443738 -2.21584 -6.37842
32 1 2.08903 -2.87623 -7.02853
33 1 2.24024 -2.30107 -6.26299
14 1 -1.69021 -0.997929 -7.04929
15 1 -1.16015 -0.218457 -7.13085
25 1 0.977575 -1.05621 -6.99096
35 1 2.85581 -0.567957 -6.52717
159 1 1.34705 0.842609 -7.41565
158 1 1.33209 1.1928 -6.50308
190 1 0.569031 2.08819 -7.50635
191 1 0.0530299 2.41755 -6.67613
192 1 0.702975 3.03762 -6.7984
193 1 1.19191 2.2959 -6.56219
7 1 -0.609065 -2.87908 -5.13624
8 1 -0.975371 -2.9896 -6.04482
17 1 -1.79 -0.798056 -5.74613
18 1 -1.6743 -0.719827 -4.76414
16 1 -1.42952 -0.0563171 -6.21041
19 1 -0.813933 -0.313083 -4.85553
20 1 -0.22557 -0.771001 -5.41895
24 1 0.363767 -1.16142 -6.24187
23 1 0.706823 -0.209937 -6.15952
21 1 0.190338 -0.174003 -4.76578
34 1 2.56414 -1.41207 -6.24688
37 1 2.7144 -0.775312 -4.99313
36 1 3.14783 -0.313315 -5.6633
22 1 0.341027 0.39606 -5.5089
156 1 1.3827 0.24096 -5.01398
157 1 1.37068 1.04761 -5.52686
195 1 0.133009 1.94251 -5.33949
194 1 1.08392 2.05494 -5.62607
6 1 -1.20706 -2.41027 -4.6533
5 1 -1.31587 -1.87579 -3.90356
3 1 -1.51619 -1.00514 -3.32611
38 1 3.01609 -0.443324 -4.13983
39 1 2.70879 -0.665919 -3.28182
152 1 -0.661473 0.686307 -3.23966
153 1 -0.230682 1.36607 -3.86803
155 1 0.769867 0.699931 -4.37755
198 1 -0.889225 2.99635 -3.71291
196 1 0.0546857 2.63522 -4.68265
197 1 0.0594139 2.85477 -3.69235
154 1 0.657363 1.64383 -4.18042
4 1 -1.85147 -1.87782 -3.08322
2 1 -1.34323 -0.446198 -2.59367
40 1 2.16242 -0.203238 -2.63655
50 1 -0.869726 0.815416 -1.59218
1 1 -1.50574 0.446701 -2.28272
151 1 -0.786468 1.2376 -2.49969
41 1 1.55916 0.326299 -2.11724
43 1 1.10811 1.31154 -2.07148
42 1 2.02242 1.08468 -1.91301
200 1 -0.0738688 1.80166 -2.79645
199 1 -0.644272 2.53308 -2.84212
44 1 1.59032 2.14363 -2.30576
49 1 -0.647259 1.66173 -1.07541
47 1 0.991788 1.75835 -0.664349
48 1 0.117419 2.22411 -0.835428
46 1 1.77048 2.31063 -0.501351
45 1 1.86558 2.49272 -1.49723
ITEM: TIMESTEP
100000
ITEM: NUMBER OF ATOMS
100
ITEM: BOX BOUNDS ff ff ff
-5.0000000000000000e+01 5.0000000000000000e+01
-5.0000000000000000e+01 5.0000000000000000e+01
-5.0000000000000000e+01 5.0000000000000000e+01
ITEM: ATOMS id type x y z
43 1 10.6136 6.34684 -16.6552
46 1 10.4291 5.21931 -14.5797
44 1 11.0055 5.69115 -16.0808
45 1 10.3483 5.79564 -15.3974
47 1 10.804 6.05883 -14.2454
37 1 7.41602 8.61126 -14.7409
39 1 8.4963 7.23951 -15.159
38 1 7.89225 7.79867 -14.5947
41 1 9.62823 7.37223 -16.6379
40 1 8.94379 7.47092 -15.9506
42 1 10.3114 7.02289 -16.0486
48 1 10.7433 5.92774 -13.2542
49 1 10.9398 4.91433 -13.1721
50 1 11.425 4.19779 -12.9413
35 1 6.482 7.72061 -14.6716
36 1 6.58784 8.5494 -15.2258
27 1 8.11457 5.39142 -12.5963
31 1 6.22998 6.21488 -13.6942
30 1 7.22778 6.00925 -13.6781
29 1 7.603 5.2664 -14.1978
28 1 8.26541 5.25353 -13.5498
2 1 12.3957 4.18145 -13.1852
1 1 11.7809 3.93222 -13.8772
32 1 6.19391 6.59773 -14.5748
33 1 5.66386 7.25819 -14.1502
34 1 6.56491 7.48467 -13.6894
23 1 6.22675 4.87885 -11.5586
25 1 7.66997 4.30764 -11.5095
24 1 6.8788 4.46433 -12.089
22 1 6.51981 4.28071 -10.8725
26 1 7.97589 4.48954 -12.3881
4 1 13.6815 5.03768 -12.4039
3 1 13.1927 4.66253 -13.0532
5 1 12.8661 5.54239 -12.3405
6 1 12.7983 5.86318 -11.4481
7 1 13.3277 6.48466 -10.9427
21 1 6.15473 4.32465 -10.0056
20 1 5.97504 5.04068 -9.32516
12 1 10.2727 6.14188 -11.5578
9 1 11.6608 6.99347 -11.0771
8 1 12.4124 6.75765 -10.6521
19 1 6.60623 5.71152 -9.25899
17 1 7.90499 4.95806 -10.3584
18 1 7.34329 5.4406 -9.8359
16 1 8.66243 4.77905 -9.76424
15 1 8.96974 5.26469 -10.5755
13 1 10.3846 5.64318 -10.7603
11 1 10.3164 6.79642 -12.2626
14 1 9.81702 5.25744 -10.0771
10 1 11.1041 6.89585 -11.7815
193 1 -9.10485 10.2004 -7.43383
191 1 -8.11544 11.085 -7.7645
186 1 -7.10348 9.89038 -9.4687
190 1 -8.63621 11.4961 -8.48498
185 1 -7.52791 9.73095 -10.3452
184 1 -7.0314 10.5318 -10.6249
188 1 -8.31834 11.0283 -9.69558
189 1 -9.13386 11.3265 -9.33023
187 1 -7.50826 10.7543 -9.34417
197 1 -8.96301 9.39326 -5.11524
198 1 -9.68953 9.13326 -4.59769
196 1 -8.99333 8.70864 -5.76973
195 1 -9.42023 9.13828 -6.55777
194 1 -8.80943 9.35284 -7.30341
179 1 -3.33682 9.94656 -8.10699
178 1 -3.86732 9.86203 -7.30838
177 1 -3.11229 9.79566 -6.79051
176 1 -2.49673 9.46433 -6.1387
174 1 -2.61666 10.1642 -4.8706
175 1 -2.67724 9.2491 -5.26496
192 1 -8.22199 10.1185 -7.81375
182 1 -5.54168 9.93832 -9.84293
181 1 -4.62868 9.9467 -9.38253
183 1 -6.07244 10.4172 -10.4618
172 1 -3.03777 10.7857 -3.8584
173 1 -3.11604 11.0023 -4.82507
199 1 -9.914 9.64473 -5.42416
200 1 -10.7033 9.25419 -5.22747
180 1 -3.79584 9.69724 -8.90843
170 1 -3.33734 11.7062 -4.17661
169 1 -4.07153 12.0399 -4.64618
171 1 -2.4191 11.4859 -4.11524
151 1 -11.5979 8.99528 -5.08544
152 1 -11.2044 9.00351 -4.18523
153 1 -10.4916 9.20626 -3.44671
160 1 -6.44048 11.3652 -3.87017
168 1 -3.62157 12.715 -4.2144
166 1 -4.23429 11.9822 -3.17735
165 1 -4.1064 11.8105 -2.20129
167 1 -3.40006 12.3207 -3.30574
156 1 -8.48594 10.4671 -3.42143
154 1 -9.66266 9.00548 -3.21943
155 1 -9.03348 9.66917 -3.48819
157 1 -8.12883 10.1101 -4.24772
158 1 -7.77822 11.011 -4.29064
159 1 -7.0564 10.6264 -3.88621
161 1 -6.63611 12.0902 -3.19395
162 1 -5.81748 12.4554 -2.71812
163 1 -5.12431 12.0054 -2.24629
164 1 -4.48978 12.3486 -1.47314
ITEM: TIMESTEP
200000
ITEM: NUMBER OF ATOMS
100
ITEM: BOX BOUNDS ff ff ff
-5.0000000000000000e+01 5.0000000000000000e+01
-5.0000000000000000e+01 5.0000000000000000e+01
-5.0000000000000000e+01 5.0000000000000000e+01
ITEM: ATOMS id type x y z
31 1 10.2012 8.54802 -22.8562
27 1 11.6812 9.65661 -22.1456
28 1 11.0069 9.05124 -22.315
29 1 11.1709 9.435 -23.2473
26 1 12.0477 9.07969 -21.4388
30 1 10.8788 8.54908 -23.5551
32 1 9.89066 9.37703 -23.2287
33 1 10.5083 9.8738 -23.9111
34 1 11.0734 9.33222 -24.4638
35 1 11.8707 9.33188 -24.9192
50 1 15.3944 6.86881 -21.2738
25 1 11.3811 9.3086 -20.8023
24 1 10.7839 8.66243 -21.0849
46 1 13.9183 9.0219 -21.6784
47 1 13.4599 8.27778 -21.3168
48 1 14.2811 7.7355 -21.4425
49 1 15.3135 7.82203 -21.3875
23 1 9.95594 8.38932 -21.5307
44 1 13.14 10.0251 -21.1177
36 1 11.93 10.2578 -25.1968
38 1 12.6687 9.64107 -24.1817
37 1 12.8166 10.2436 -24.9094
39 1 13.0751 10.2136 -23.5244
15 1 10.1051 5.60034 -18.9185
14 1 9.19657 5.49172 -18.6136
9 1 11.8545 6.24606 -17.3937
7 1 12.8302 5.27035 -18.668
2 1 15.0804 5.63466 -20.702
1 1 15.9191 6.04793 -21.0199
18 1 9.75454 7.93536 -19.4216
17 1 9.84004 7.21236 -18.7939
19 1 9.17493 7.97701 -20.2089
16 1 10.0232 6.3788 -18.3547
22 1 9.39628 8.8407 -20.9707
21 1 9.43757 9.35563 -20.1839
20 1 8.90733 8.78353 -19.64
45 1 13.053 9.32713 -21.7483
43 1 13.1829 10.9353 -20.7137
40 1 12.9442 10.9038 -22.8847
41 1 13.5607 11.4372 -22.3593
42 1 13.0681 11.5106 -21.4576
12 1 9.91498 5.43194 -17.4261
13 1 9.09718 5.84094 -17.6854
11 1 10.8736 5.20728 -17.2775
10 1 11.0142 6.18623 -16.8789
6 1 13.1702 4.42354 -18.7322
5 1 13.8135 4.91233 -19.3538
3 1 14.7607 5.91935 -19.8144
4 1 14.2396 5.70966 -18.9674
8 1 12.1398 5.60022 -18.092
190 1 -3.10534 15.5416 -4.11368
191 1 -3.7588 15.8005 -4.8335
192 1 -4.53625 16.3779 -5.18781
156 1 3.18928 18.4054 -6.74616
193 1 -4.17637 15.7329 -5.87812
194 1 -4.67435 16.4005 -6.37189
198 1 -1.83364 17.7088 -7.06215
154 1 1.52097 18.514 -7.04136
155 1 2.42292 18.8851 -7.0136
197 1 -2.63959 17.2746 -7.28031
200 1 -0.549777 18.5081 -6.80973
176 1 1.5448 12.7021 -5.24122
175 1 1.93315 13.6204 -5.27828
187 1 -2.74088 14.0525 -2.71835
189 1 -2.30319 15.3573 -3.68677
188 1 -2.22456 14.4572 -3.3688
167 1 4.77 14.0605 -2.94988
166 1 5.38327 14.5691 -3.49939
165 1 4.91464 15.4354 -3.48035
195 1 -4.26365 16.8266 -7.1973
196 1 -3.564 17.3185 -7.69218
153 1 1.43546 19.451 -6.97439
157 1 2.60752 18.4418 -5.98745
159 1 4.10985 18.8406 -5.00608
158 1 3.26583 18.4737 -5.34278
199 1 -1.51322 18.5691 -6.70525
151 1 0.173439 18.7099 -7.48178
152 1 0.586906 19.5539 -7.52641
179 1 0.287519 13.6349 -3.47567
178 1 1.15742 13.4629 -3.88447
177 1 1.17314 12.6106 -4.35257
173 1 3.28159 12.7226 -5.044
186 1 -2.38795 13.2555 -3.09612
182 1 -1.1912 13.4936 -4.84125
181 1 -0.404212 13.872 -4.45318
180 1 -0.276655 14.3594 -3.60697
174 1 2.53598 12.9119 -5.58277
170 1 4.88899 12.0203 -3.50773
169 1 5.40753 12.6929 -3.03406
185 1 -2.16202 12.7818 -3.87537
184 1 -2.09386 12.5783 -4.80415
183 1 -1.11812 12.5097 -4.84155
168 1 5.64299 13.7097 -3.08316
160 1 4.36612 17.9774 -5.14764
161 1 4.79054 17.3798 -4.44671
164 1 5.39102 16.2516 -3.3137
163 1 5.61597 17.045 -2.78248
162 1 4.96235 17.2419 -3.50128
172 1 4.22061 12.4835 -5.01952
171 1 4.762 11.932 -4.42933
ITEM: TIMESTEP
300000
ITEM: NUMBER OF ATOMS
100
ITEM: BOX BOUNDS ff ff ff
-5.0000000000000000e+01 5.0000000000000000e+01
-5.0000000000000000e+01 5.0000000000000000e+01
-5.0000000000000000e+01 5.0000000000000000e+01
ITEM: ATOMS id type x y z
20 1 5.10785 16.6864 -33.1784
26 1 1.77641 16.7314 -34.0874
25 1 2.61208 16.5845 -33.7298
24 1 3.50284 16.2895 -33.4895
23 1 3.64047 16.3689 -34.4599
21 1 5.3158 16.6765 -34.2333
22 1 4.39251 16.6506 -33.8668
31 1 0.727654 17.4388 -31.6858
19 1 5.68875 15.8704 -33.1042
18 1 6.05161 15.0289 -32.6183
30 1 0.55865 17.9567 -32.4987
28 1 1.45404 18.1839 -33.5854
29 1 1.17439 18.6554 -32.7796
27 1 1.61955 17.2772 -33.2978
17 1 5.90786 14.8721 -31.6323
33 1 1.64725 18.1709 -30.4825
32 1 1.51884 18.0468 -31.5029
11 1 5.86638 17.5482 -30.3674
10 1 5.85819 17.9406 -29.5217
16 1 5.95508 15.2695 -30.8093
15 1 5.98656 15.2607 -29.9036
14 1 5.42722 15.8251 -29.1928
12 1 5.80122 16.5783 -30.3796
9 1 5.57594 18.2737 -28.6956
13 1 6.15077 16.3888 -29.5473
34 1 2.36823 18.131 -29.8616
35 1 2.51418 17.3808 -29.2257
36 1 3.35076 17.7148 -28.9202
37 1 4.00777 17.7338 -28.2706
38 1 3.7605 17.2942 -27.4297
4 1 7.87649 15.6675 -28.724
7 1 6.58983 16.8023 -28.4632
6 1 7.23648 17.3801 -28.139
5 1 7.5527 16.5467 -28.5802
8 1 6.34354 17.7489 -28.4576
42 1 3.14841 14.4548 -26.5962
39 1 3.82024 16.3617 -27.0914
41 1 2.78063 15.4565 -26.3723
40 1 2.94885 16.3813 -26.6542
3 1 7.00648 15.2371 -28.4521
2 1 6.14481 14.8721 -28.1393
43 1 3.70247 14.0382 -25.8797
45 1 4.09335 14.1481 -23.9858
44 1 3.75254 14.0702 -24.8899
1 1 6.52229 14.5996 -27.2999
50 1 6.83275 14.0745 -26.4549
49 1 6.55765 14.6489 -25.6501
47 1 5.71324 14.2994 -24.3685
46 1 4.77502 14.221 -24.5983
48 1 5.76964 14.1521 -25.331
189 1 -2.68189 11.8843 -15.9454
188 1 -2.26267 11.1945 -16.3994
187 1 -1.84068 11.5538 -15.6181
185 1 -0.2737 11.6928 -15.2272
184 1 -0.283259 10.8589 -14.726
186 1 -0.961812 11.8427 -15.8823
192 1 -2.58483 10.8186 -14.008
191 1 -2.28737 11.5835 -14.6258
182 1 -0.36388 9.60549 -15.8865
183 1 -0.797235 10.1956 -15.2267
193 1 -3.25341 11.1352 -13.3534
190 1 -2.71902 12.2649 -15.0784
195 1 -4.97047 11.1805 -12.7126
196 1 -4.53494 10.3689 -12.2341
181 1 -1.08337 9.0966 -15.4862
194 1 -4.14654 11.3844 -13.1544
197 1 -3.55999 10.1017 -12.1892
179 1 -2.02117 9.0646 -14.4873
178 1 -1.48274 8.53922 -13.9103
180 1 -1.85688 9.53171 -15.3323
177 1 -0.752545 8.3149 -13.1974
151 1 -1.68532 9.43047 -9.58325
200 1 -1.69163 9.35608 -10.5692
152 1 -1.62858 9.76308 -8.59091
198 1 -2.62777 10.0965 -11.8462
199 1 -1.88536 9.67132 -11.4342
171 1 0.35691 11.4717 -11.356
176 1 -0.307588 9.04263 -13.6593
175 1 -0.448857 9.65488 -12.9646
174 1 0.269596 10.2581 -13.111
173 1 -0.258055 10.3565 -12.2777
172 1 0.0360889 11.2242 -12.2883
170 1 0.925875 10.8583 -10.9234
155 1 -1.25655 10.2503 -6.09908
153 1 -1.91321 10.0756 -7.72525
154 1 -1.88517 9.91129 -6.79102
163 1 3.34395 11.3838 -6.92975
164 1 2.88325 11.8776 -7.6898
165 1 3.18044 11.9868 -8.58098
166 1 2.39297 11.9306 -9.18509
169 1 1.38133 11.1955 -10.0959
168 1 1.86937 10.3568 -10.0471
167 1 2.47945 11.1021 -9.79904
156 1 -0.618308 9.88964 -5.37332
158 1 -0.0223411 10.9093 -6.85205
157 1 -0.109619 10.341 -6.05415
159 1 0.579628 11.1578 -6.06168
160 1 1.03224 11.7256 -6.65937
162 1 2.63549 11.1762 -6.28614
161 1 1.8398 11.2032 -6.77164
ITEM: TIMESTEP
400000
ITEM: NUMBER OF ATOMS
100
ITEM: BOX BOUNDS ff ff ff
-5.0000000000000000e+01 5.0000000000000000e+01
-5.0000000000000000e+01 5.0000000000000000e+01
-5.0000000000000000e+01 5.0000000000000000e+01
ITEM: ATOMS id type x y z
39 1 -4.24571 12.685 -24.7632
43 1 -2.44471 11.4851 -26.8691
38 1 -4.44334 13.1119 -25.6211
37 1 -5.27282 13.5323 -25.361
36 1 -5.56494 14.3989 -25.5903
40 1 -3.68187 11.9979 -25.0941
41 1 -3.60194 11.1467 -25.5108
42 1 -3.28765 11.6219 -26.349
9 1 2.79483 14.9007 -26.9318
11 1 1.33807 14.7065 -26.1065
10 1 1.96137 14.4844 -26.7851
13 1 1.50864 16.205 -25.7936
12 1 1.57409 15.587 -26.5646
15 1 2.05736 16.6996 -26.7023
14 1 2.3041 16.8447 -25.7853
44 1 -2.15925 11.7357 -26.0393
35 1 -5.92007 14.9126 -24.8947
45 1 -2.40805 12.5773 -25.6546
48 1 -1.27753 13.8083 -24.5724
46 1 -1.61973 12.5663 -25.1468
1 1 1.16124 14.2448 -24.0597
49 1 -0.582144 14.1129 -24.0254
50 1 0.265066 13.8812 -23.7088
34 1 -5.4698 15.5758 -24.3585
33 1 -4.74902 15.4555 -23.672
32 1 -4.24087 15.3109 -24.4539
31 1 -3.55537 15.09 -23.6207
30 1 -2.84801 15.2199 -22.9617
6 1 3.67746 14.3805 -25.0455
7 1 3.58283 14.1837 -26.0233
8 1 3.35724 14.1115 -26.966
29 1 -2.3696 15.5167 -22.25
26 1 -1.56575 16.277 -24.0506
18 1 1.54157 18.1632 -25.4372
17 1 1.75467 17.9647 -26.3266
16 1 1.77823 17.4679 -27.1893
21 1 -0.571155 17.0957 -25.2841
19 1 0.97567 17.4173 -25.3157
20 1 0.0921229 17.8255 -25.2185
47 1 -0.85114 13.1412 -25.1442
3 1 1.4029 15.4385 -24.3885
2 1 1.31215 14.7041 -24.9127
4 1 2.22341 15.1162 -24.1381
28 1 -1.38178 15.7517 -22.2402
5 1 3.15049 15.0057 -24.4821
27 1 -1.78297 16.0877 -23.1356
25 1 -0.634245 16.1232 -23.8039
24 1 -0.49821 17.0336 -23.6367
23 1 -0.101429 17.2905 -24.404
22 1 -0.811157 17.8472 -24.662
164 1 1.99651 5.12816 -15.8037
167 1 0.0798972 4.80361 -17.7167
169 1 -0.572965 4.26228 -16.4768
168 1 -0.53791 5.00317 -17.0216
174 1 -1.08674 2.82072 -16.9359
173 1 -0.120278 2.7885 -17.1869
165 1 1.25139 4.71927 -16.2113
163 1 1.49777 5.37613 -15.0358
161 1 1.57162 6.10922 -13.6508
160 1 1.7819 5.1758 -13.7917
175 1 -2.01997 2.90976 -17.1215
171 1 -0.450867 3.45256 -18.1581
172 1 0.365763 3.38126 -17.7357
166 1 0.678341 4.74057 -16.9541
162 1 0.995026 5.92694 -14.3786
170 1 -0.471593 4.01987 -17.3814
159 1 2.7384 5.32631 -13.7512
158 1 3.40889 5.93417 -13.4052
179 1 -1.98781 3.02029 -13.9612
178 1 -1.84114 2.33072 -14.6916
177 1 -1.78164 2.88053 -15.4546
176 1 -1.84238 3.37693 -16.2797
180 1 -1.56341 3.9 -13.9493
183 1 -3.19582 4.8321 -14.1732
181 1 -2.50077 4.09384 -14.0927
182 1 -2.44105 4.95192 -13.5631
184 1 -3.0718 5.76349 -13.9516
185 1 -2.45929 6.50039 -13.914
194 1 -0.0786717 7.27309 -17.8691
156 1 2.96068 7.35542 -14.4603
157 1 3.05459 6.42259 -14.2529
155 1 2.07286 7.52225 -14.1159
154 1 2.78072 8.11157 -13.7199
186 1 -2.22186 7.35457 -13.767
187 1 -1.31194 7.19929 -13.4702
193 1 -0.28024 7.88523 -17.1781
192 1 -0.517389 7.74398 -16.2539
196 1 -0.0901457 6.10846 -16.3962
195 1 -0.368621 6.61203 -17.1891
152 1 1.61932 8.868 -13.1237
153 1 2.42028 8.47785 -12.9363
188 1 -0.649523 6.94274 -14.0721
191 1 -1.05494 8.49563 -15.8879
190 1 -1.2345 8.00627 -15.1191
200 1 0.502853 8.20121 -14.0224
151 1 0.5963 9.10865 -13.5709
189 1 -0.456491 7.67938 -14.6292
197 1 -0.11937 6.59179 -15.5344
198 1 0.481665 7.25095 -15.2697
199 1 0.597345 8.17821 -14.9591
ITEM: TIMESTEP
500000
ITEM: NUMBER OF ATOMS
100
ITEM: BOX BOUNDS ff ff ff
-5.0000000000000000e+01 5.0000000000000000e+01
-5.0000000000000000e+01 5.0000000000000000e+01
-5.0000000000000000e+01 5.0000000000000000e+01
ITEM: ATOMS id type x y z
151 1 13.0515 4.98814 -22.955
200 1 13.833 5.54436 -22.9222
153 1 11.7221 5.39867 -23.4191
152 1 12.392 5.73024 -22.7965
39 1 1.23078 13.6495 -27.4052
40 1 1.65872 14.092 -26.6289
154 1 11.2811 5.13758 -22.6248
156 1 11.078 3.37848 -23.4165
155 1 11.1119 4.25245 -22.9638
199 1 14.6055 5.06369 -23.244
198 1 14.0181 4.83421 -24.0068
196 1 15.24 4.81135 -24.6906
157 1 10.1606 3.7147 -23.3284
197 1 14.4114 5.34578 -24.7282
194 1 15.0528 3.43711 -24.3741
195 1 15.4532 3.94984 -25.1006
31 1 0.467155 8.23181 -24.5767
32 1 0.323026 8.73661 -25.322
30 1 0.870406 8.91425 -23.9543
29 1 1.59181 8.98177 -23.2698
34 1 0.022617 9.88522 -26.2728
33 1 0.714771 9.29108 -25.9781
35 1 0.754137 10.3199 -26.7823
36 1 1.53883 10.798 -26.82
37 1 1.53388 11.7764 -27.0263
38 1 1.40036 12.7061 -27.1804
41 1 2.29397 13.5232 -26.0835
42 1 2.98989 14.2385 -26.0242
44 1 4.31332 13.4121 -25.8755
45 1 5.07985 13.5426 -25.2878
46 1 5.00023 13.4896 -24.3588
43 1 3.69644 13.6942 -26.5279
158 1 9.45 4.26926 -23.6517
159 1 9.42949 4.7203 -22.7727
188 1 14.088 4.8312 -21.4427
193 1 15.0932 3.75974 -23.4329
27 1 1.57812 9.64119 -22.1926
28 1 1.28692 8.76966 -22.4588
3 1 4.59669 16.8704 -21.2195
47 1 4.87774 14.2475 -23.8357
49 1 5.55668 15.8314 -23.822
48 1 5.46846 14.8972 -23.4974
186 1 12.8692 3.67336 -21.4235
160 1 8.77252 5.34875 -22.3648
187 1 13.7751 3.98782 -21.6789
178 1 16.0241 5.90176 -18.1981
161 1 9.07018 4.7209 -21.7066
163 1 10.2285 5.42831 -22.5767
189 1 14.9212 4.37746 -21.2082
190 1 15.5426 5.03018 -21.5784
191 1 15.2716 4.55722 -22.413
192 1 15.6803 4.48888 -23.2793
177 1 15.5427 6.58283 -17.6757
165 1 10.3983 5.97184 -21.0884
164 1 10.3907 6.27317 -21.9638
174 1 14.4839 8.14509 -19.5712
166 1 10.4724 6.89006 -20.6606
170 1 11.2544 7.79084 -18.9014
169 1 10.3092 7.94757 -18.8867
171 1 11.9018 8.53916 -19.0169
173 1 13.6872 8.61462 -19.5272
172 1 12.76 8.69008 -19.466
26 1 1.44419 9.27291 -21.2894
25 1 1.38952 8.31228 -21.1226
24 1 1.39342 8.4129 -20.125
23 1 2.04186 9.05576 -20.0087
50 1 5.03667 16.3565 -23.1638
1 1 5.65346 16.7227 -22.5008
2 1 4.83654 16.5364 -22.0608
5 1 5.62639 16.2129 -19.7149
4 1 4.94943 16.5582 -20.2561
185 1 13.2803 3.63574 -20.5229
184 1 13.1366 4.28051 -19.7931
180 1 15.1197 4.99238 -18.7281
162 1 9.88647 5.13032 -21.8051
179 1 15.7239 5.712 -19.0933
176 1 15.6733 7.02183 -18.5299
175 1 14.9512 7.49497 -19.0508
167 1 10.771 6.36702 -19.909
168 1 10.5588 7.23334 -19.5207
19 1 3.12525 7.87851 -18.316
22 1 3.00923 8.92966 -19.827
18 1 3.6919 8.56977 -17.9448
20 1 3.72705 7.90916 -19.0488
21 1 3.40141 8.08382 -20.0316
8 1 4.94253 14.3203 -18.4
7 1 5.58422 15.0477 -18.6805
6 1 5.1918 15.9087 -18.8976
183 1 13.6959 5.07734 -19.6362
182 1 13.4095 5.32137 -18.7436
181 1 14.3532 5.53939 -18.9814
17 1 3.80746 9.41053 -18.4647
16 1 3.05467 10.0294 -18.2747
15 1 3.14798 9.73268 -17.3723
11 1 4.3854 12.5047 -17.4855
10 1 4.54112 12.7435 -18.3926
9 1 4.50509 13.5867 -18.8152
14 1 3.54977 10.0509 -16.5774
13 1 3.75196 10.7819 -17.2549
12 1 3.89901 11.7555 -17.1624
ITEM: TIMESTEP
600000
ITEM: NUMBER OF ATOMS
100
ITEM: BOX BOUNDS ff ff ff
-5.0000000000000000e+01 5.0000000000000000e+01
-5.0000000000000000e+01 5.0000000000000000e+01
-5.0000000000000000e+01 5.0000000000000000e+01
ITEM: ATOMS id type x y z
166 1 7.71856 4.95472 -14.9584
165 1 8.31919 4.28088 -14.747
168 1 6.42411 5.53605 -14.7029
176 1 2.16159 6.47138 -13.5198
174 1 3.59035 6.19675 -13.5556
173 1 4.39804 6.22418 -13.0055
170 1 5.05556 5.61293 -14.1489
167 1 7.04832 5.03769 -14.2513
169 1 5.57419 6.09195 -14.7959
163 1 8.00095 3.8662 -13.9161
161 1 8.97031 2.72546 -13.0078
162 1 8.36489 2.98195 -13.7092
157 1 10.2345 3.90181 -11.857
158 1 9.93103 2.98685 -12.0958
175 1 2.7286 5.69905 -13.6525
164 1 7.89595 3.43886 -14.8125
153 1 9.56028 2.90893 -8.72503
152 1 9.55191 3.52957 -9.45868
154 1 10.0848 2.62779 -9.44643
178 1 1.79999 6.60164 -11.7006
172 1 4.44382 5.28671 -12.7256
171 1 5.2593 5.62082 -13.1681
155 1 10.3288 3.17097 -10.2162
156 1 10.5591 3.38958 -11.1233
180 1 0.568519 7.25884 -11.4848
177 1 2.00548 6.78968 -12.6419
179 1 1.10036 7.05349 -12.2266
160 1 9.91714 2.81536 -13.2554
159 1 10.6029 3.29488 -12.7819
151 1 8.89868 3.77341 -10.0967
199 1 7.35599 4.26249 -9.01988
200 1 8.15866 4.13658 -9.57738
181 1 0.75396 8.25031 -11.6243
192 1 2.88835 7.40251 -9.50993
193 1 3.39204 7.1379 -10.2745
187 1 1.53252 9.48008 -10.929
186 1 0.752673 9.98398 -10.6512
188 1 2.3528 9.29816 -11.2954
190 1 1.85162 8.30061 -10.5392
191 1 2.57054 8.29465 -9.91148
195 1 4.93924 5.94792 -9.79642
194 1 4.14832 6.59023 -10.1342
196 1 5.53739 5.36973 -10.2867
197 1 5.9162 5.2421 -9.41329
198 1 6.55157 4.55769 -9.28392
183 1 0.161246 8.78505 -10.4011
182 1 0.6481 9.02291 -11.1348
185 1 -0.200188 10.1868 -10.6036
184 1 -0.386736 9.35533 -11.0175
189 1 2.3611 8.34171 -11.3357
26 1 1.9666 2.21328 -6.63182
24 1 1.32294 3.73818 -6.27139
25 1 1.33652 2.83222 -6.27148
17 1 3.42613 3.5418 -4.06963
21 1 2.71941 4.89201 -5.63596
22 1 2.90586 4.20801 -6.25091
23 1 2.16395 3.56886 -5.9395
27 1 2.47597 1.87482 -5.88117
15 1 2.77214 1.94689 -4.42345
28 1 1.81298 1.25398 -5.64389
29 1 1.52184 0.951309 -4.80987
16 1 3.39256 2.72605 -4.69111
44 1 7.32489 1.02765 -3.65884
19 1 3.88541 5.09011 -4.61261
18 1 4.01907 4.20433 -4.35563
20 1 3.72476 4.7615 -5.5425
46 1 8.21571 2.3724 -4.73467
45 1 7.88529 1.72788 -4.01419
48 1 8.83076 3.89829 -5.22844
49 1 8.03553 3.70676 -4.58297
32 1 2.05901 0.0812148 -2.60496
14 1 3.56973 1.60087 -4.16397
42 1 7.34679 -0.402403 -3.2028
41 1 6.67189 -0.81247 -3.66948
31 1 1.67554 0.870345 -3.00396
13 1 4.25439 2.30749 -4.21153
30 1 1.32363 1.22904 -3.91599
12 1 4.99967 1.80125 -3.69047
43 1 6.72649 0.2872 -3.29743
11 1 5.2537 2.49325 -3.04384
47 1 8.61793 2.90884 -5.36821
2 1 8.29226 4.90509 -3.76981
3 1 7.3936 5.37708 -3.7759
50 1 7.31175 3.69725 -3.95258
1 1 7.75506 4.2276 -3.26322
39 1 5.76554 -1.10457 -2.73396
35 1 3.98543 -1.20229 -1.73948
40 1 6.75041 -1.15935 -2.84365
34 1 3.40573 -0.57551 -2.10379
33 1 2.8388 -0.386073 -2.88647
10 1 6.19959 2.61835 -2.83096
9 1 5.96057 3.55704 -2.56607
7 1 5.84191 4.7243 -1.79906
5 1 6.51737 5.33638 -3.43382
8 1 6.36921 3.90211 -1.8182
4 1 6.65602 5.98764 -4.05468
38 1 5.73589 -1.59154 -1.87091
37 1 4.96238 -1.94262 -1.40886
36 1 4.68427 -1.47024 -2.22957
6 1 6.21046 5.25302 -2.47752
ITEM: TIMESTEP
700000
ITEM: NUMBER OF ATOMS
100
ITEM: BOX BOUNDS ff ff ff
-5.0000000000000000e+01 5.0000000000000000e+01
-5.0000000000000000e+01 5.0000000000000000e+01
-5.0000000000000000e+01 5.0000000000000000e+01
ITEM: ATOMS id type x y z
152 1 14.029 3.98351 -15.9424
151 1 13.8725 4.92441 -15.9686
158 1 16.9148 1.28315 -15.1066
157 1 16.1715 1.49688 -14.487
153 1 14.5956 3.28547 -15.6338
154 1 14.9182 2.41199 -15.6622
155 1 15.8 2.1323 -15.394
159 1 17.3414 2.04284 -14.5047
160 1 17.5071 2.83921 -15.0975
200 1 13.087 5.41942 -16.1693
163 1 18.2427 3.13422 -13.1849
161 1 18.3036 2.36499 -14.8759
199 1 13.3122 5.60717 -17.135
197 1 13.4686 6.39842 -18.1861
198 1 13.5894 5.50306 -18.1183
195 1 14.4335 6.7769 -17.3063
194 1 15.2711 7.11501 -17.0224
196 1 13.6846 7.15903 -17.6988
192 1 15.6991 8.2905 -15.7179
191 1 14.8105 7.93546 -15.4959
193 1 15.3124 7.795 -16.4492
190 1 15.2226 8.37712 -14.6884
156 1 16.0279 2.45021 -14.4776
164 1 17.8885 3.9524 -13.1307
162 1 18.4163 2.48028 -13.9255
166 1 16.8305 5.20065 -12.7272
168 1 15.6204 6.39137 -12.0929
165 1 17.6138 4.66992 -12.5966
171 1 14.0331 6.34612 -12.6112
169 1 15.1332 5.69042 -12.5216
170 1 14.4216 5.57991 -13.1103
187 1 15.6109 8.43701 -12.7417
189 1 15.217 7.80697 -13.8941
186 1 15.9064 9.33552 -12.8429
188 1 15.065 8.63172 -13.5034
167 1 16.351 5.69013 -12.0248
177 1 13.1003 9.41697 -10.0761
172 1 13.9733 7.29577 -12.693
173 1 13.3529 7.50991 -11.9746
29 1 -0.212971 10.1967 -11.9094
185 1 15.6771 9.99162 -12.2465
27 1 -0.22508 10.5103 -10.8948
183 1 15.7754 10.4617 -11.1242
184 1 16.4113 10.1012 -11.7136
178 1 12.7699 10.1665 -10.584
176 1 12.4713 8.69597 -9.72505
33 1 -0.95631 9.46353 -11.8618
32 1 -1.10864 9.81818 -12.6772
31 1 -0.532593 9.31928 -13.2654
179 1 13.6427 10.269 -10.9852
180 1 14.3313 10.993 -10.9886
175 1 12.3218 8.0559 -10.4194
174 1 12.8105 7.46408 -11.1067
35 1 -1.67164 8.30524 -12.8769
34 1 -1.20726 8.50664 -12.0533
30 1 -0.106856 9.44892 -12.443
181 1 14.6263 11.5568 -11.6921
182 1 15.3425 11.2984 -11.0675
26 1 0.331379 11.2311 -10.5932
25 1 0.213718 12.0471 -11.0174
28 1 0.379848 9.7987 -11.2698
23 1 -0.401558 12.2287 -10.0358
20 1 -1.83339 13.6142 -8.08563
24 1 -0.425732 12.7994 -10.8072
22 1 -0.516726 12.7834 -9.23674
21 1 -1.35708 13.0451 -8.78887
38 1 -2.85516 9.88493 -11.1269
42 1 -3.55527 11.2847 -9.28845
36 1 -2.24155 8.77563 -12.1807
37 1 -2.37405 9.09855 -11.2802
44 1 -4.32865 11.263 -8.65282
43 1 -3.78997 10.4903 -8.78888
45 1 -4.79598 10.6198 -8.1172
47 1 -5.22894 11.7517 -7.6731
46 1 -5.46421 11.2247 -8.38794
48 1 -5.23349 12.2311 -6.88361
49 1 -4.51733 12.802 -7.24213
16 1 -2.97307 16.0442 -8.08795
15 1 -2.95508 16.184 -9.00183
19 1 -2.07383 13.88 -7.19359
18 1 -2.18477 14.7103 -7.68065
17 1 -2.22156 15.6797 -7.54688
13 1 -4.58627 16.3927 -8.64649
14 1 -3.91811 15.9125 -9.10142
39 1 -2.52468 10.7257 -11.484
41 1 -3.23946 11.4504 -10.1438
40 1 -3.22679 10.9175 -10.9173
50 1 -4.59522 13.685 -6.97151
1 1 -4.35868 13.7136 -5.95352
2 1 -4.37914 14.2033 -5.15664
11 1 -5.23158 17.6575 -9.08118
12 1 -5.45874 16.8566 -8.61766
3 1 -4.01058 15.0337 -5.50818
4 1 -3.03686 15.2124 -5.34445
9 1 -3.83449 17.6642 -8.22222
10 1 -4.43015 18.1102 -8.83479
5 1 -3.01859 15.7221 -6.19332
6 1 -2.65994 16.4883 -6.70593
8 1 -3.26962 17.0534 -7.64535
7 1 -3.56866 16.3058 -7.12784
ITEM: TIMESTEP
800000
ITEM: NUMBER OF ATOMS
100
ITEM: BOX BOUNDS ff ff ff
-5.0000000000000000e+01 5.0000000000000000e+01
-5.0000000000000000e+01 5.0000000000000000e+01
-5.0000000000000000e+01 5.0000000000000000e+01
ITEM: ATOMS id type x y z
164 1 20.8647 6.45279 -17.9317
165 1 19.8483 6.5378 -17.9172
170 1 17.6185 7.76066 -16.4002
167 1 18.5867 6.37458 -17.4506
163 1 21.7517 6.27908 -18.1492
162 1 22.4647 6.84777 -17.9341
166 1 19.0617 6.14461 -18.244
171 1 17.6251 8.59123 -16.8034
173 1 17.5044 9.85002 -17.8812
174 1 17.4107 10.2511 -17.0557
160 1 22.1346 8.6122 -17.8122
172 1 17.1411 9.16275 -17.3757
175 1 16.8197 10.9224 -16.7314
159 1 21.5637 7.97713 -17.3943
177 1 16.1716 11.7652 -16.5182
157 1 20.4731 8.34786 -16.9528
156 1 20.9528 9.21835 -16.9863
153 1 20.3722 10.0945 -18.6431
154 1 21.1694 9.46628 -18.7766
152 1 20.8377 11.0005 -18.7279
151 1 21.5513 11.5646 -18.5729
200 1 21.8169 11.8313 -19.4414
199 1 20.9272 12.1836 -19.6598
169 1 18.4031 7.7233 -16.9119
168 1 17.9818 6.84684 -16.8857
161 1 22.5534 7.77527 -18.1208
176 1 16.6752 11.3676 -15.8762
158 1 20.8116 7.44783 -17.1366
178 1 17.0437 12.2641 -16.5334
179 1 17.8377 12.7843 -16.829
155 1 21.0897 9.53287 -17.8423
197 1 21.1916 13.9111 -19.4438
198 1 21.3591 13.0135 -19.844
195 1 21.8924 15.4864 -20.1065
196 1 21.7717 14.6363 -19.711
194 1 21.7962 16.3758 -19.5811
193 1 20.9776 15.8548 -19.3676
180 1 17.6803 12.2577 -17.6634
181 1 18.629 12.3122 -17.5794
182 1 19.3274 12.271 -16.9741
183 1 20.0792 12.4609 -16.4428
184 1 20.8181 12.7715 -16.9517
187 1 20.3482 13.7855 -17.2258
189 1 20.7896 14.7698 -17.2048
188 1 21.2928 13.9808 -17.0371
191 1 21.4322 15.7524 -18.1997
190 1 20.8571 14.983 -18.1478
192 1 20.531 16.0996 -18.5822
185 1 20.9046 13.2466 -17.9552
186 1 20.2786 13.9166 -18.1964
27 1 0.504836 10.7112 -5.22987
28 1 0.117373 10.9464 -4.3232
26 1 -0.321506 11.0714 -5.62791
25 1 -1.09138 11.5547 -5.90274
21 1 -1.3235 12.5271 -4.25581
24 1 -1.97159 11.2347 -5.74125
20 1 -1.17829 12.1672 -3.34212
34 1 -1.13624 9.20519 -2.31429
35 1 -1.8473 9.81772 -2.1195
33 1 -1.31101 9.08644 -3.25196
32 1 -1.66953 9.23614 -4.10429
30 1 -1.27843 10.4385 -5.16069
31 1 -1.67644 10.1296 -4.32101
29 1 -0.633828 10.3878 -4.40523
17 1 -0.723964 14.5059 -3.02646
18 1 -1.1445 13.6789 -3.22077
22 1 -1.94742 11.8214 -3.91198
23 1 -1.61954 11.57 -4.85604
19 1 -0.577456 12.8997 -3.11213
36 1 -1.49136 10.5758 -1.66129
38 1 -2.75332 9.432 -1.08343
37 1 -1.89314 9.8425 -1.12293
49 1 -7.27715 11.1711 -0.966334
43 1 -5.61869 8.31303 -1.49372
42 1 -5.17962 8.98819 -2.12723
1 1 -6.76161 11.9444 0.675542
50 1 -6.97813 11.2185 -0.0481567
2 1 -6.0176 12.5735 0.679235
3 1 -5.38544 13.2581 0.464273
13 1 -1.39139 12.9981 -0.596094
7 1 -3.28999 15.1263 -0.60224
14 1 -1.02647 13.3795 -1.40203
15 1 -0.0788957 13.7124 -1.48742
8 1 -2.64807 14.4725 -0.982334
9 1 -2.59826 13.9335 -0.166588
16 1 -0.318964 14.0569 -2.29639
48 1 -6.21068 10.9585 -1.04682
47 1 -5.51888 10.3332 -0.558263
46 1 -5.99982 9.48335 -0.446174
45 1 -6.86693 9.25744 -0.840271
44 1 -6.51464 8.64613 -1.55733
41 1 -4.55973 9.67466 -2.11363
40 1 -4.11547 8.9955 -1.56033
39 1 -3.32762 9.47554 -1.84005
6 1 -4.19294 14.909 -0.377782
4 1 -4.56091 13.3899 0.0720545
5 1 -4.61672 14.4243 0.319623
12 1 -2.16745 12.8648 -0.0242862
11 1 -1.77912 13.6035 0.44869
10 1 -2.57496 14.0383 0.783434
ITEM: TIMESTEP
900000
ITEM: NUMBER OF ATOMS
100
ITEM: BOX BOUNDS ff ff ff
-5.0000000000000000e+01 5.0000000000000000e+01
-5.0000000000000000e+01 5.0000000000000000e+01
-5.0000000000000000e+01 5.0000000000000000e+01
ITEM: ATOMS id type x y z
156 1 16.6402 11.4483 -24.0147
152 1 17.0225 12.1413 -21.8293
155 1 17.6708 11.5425 -23.9634
153 1 17.6787 12.4205 -22.4264
154 1 17.9912 11.9007 -23.1222
151 1 17.3555 11.6143 -21.1168
162 1 15.6896 11.3797 -22.0797
160 1 15.7195 10.8376 -23.3862
157 1 16.9435 10.6141 -23.6145
165 1 14.6521 10.6181 -20.3715
161 1 16.3797 11.0486 -22.7133
164 1 14.7191 10.6333 -21.3469
159 1 16.1812 10.0305 -23.0375
158 1 16.833 9.67634 -23.6128
196 1 18.2467 11.8553 -18.3473
198 1 17.3875 12.4382 -19.2139
197 1 17.2493 11.9171 -18.362
200 1 17.1012 11.6635 -20.1916
199 1 17.6096 11.5242 -19.3604
171 1 13.8507 7.80652 -19.3017
170 1 13.5768 8.64101 -19.5741
188 1 18.1925 8.36965 -18.7895
187 1 17.5073 8.89432 -18.2761
167 1 14.5451 9.18029 -19.8089
169 1 12.9637 9.37473 -19.4594
168 1 13.7393 9.70908 -19.9115
163 1 15.6538 10.8222 -21.2917
193 1 19.0398 11.0043 -20.57
189 1 18.8918 8.90096 -18.383
166 1 15.0552 10.0251 -19.6968
194 1 18.8562 11.5398 -19.7799
195 1 19.1392 11.7184 -18.7972
173 1 14.4291 7.21158 -18.296
174 1 15.0119 6.33328 -18.2062
172 1 14.071 6.88416 -19.1136
183 1 16.4954 6.49515 -17.4971
182 1 16.6472 5.5406 -17.6283
186 1 16.7592 8.3231 -17.881
185 1 15.8119 8.15889 -17.8832
191 1 18.1334 9.84207 -19.4865
190 1 18.9314 9.84024 -18.923
192 1 18.2604 10.5823 -20.1144
175 1 15.2518 5.4433 -18.066
176 1 14.6984 4.78455 -18.3918
177 1 14.4702 4.60053 -19.2789
178 1 15.09 5.28601 -19.5945
179 1 15.8558 4.7023 -19.5335
180 1 16.2146 4.71495 -18.6468
181 1 16.3946 4.60038 -17.6735
184 1 15.8702 7.25044 -17.5522
39 1 -3.33001 16.3651 -9.62416
37 1 -4.50217 15.866 -8.69215
40 1 -3.26048 15.7991 -10.3984
43 1 -3.56636 17.237 -10.6475
44 1 -2.71894 17.0159 -10.255
41 1 -3.29848 16.4518 -11.1653
42 1 -4.19628 16.8431 -11.1765
14 1 -11.3191 14.2517 -8.56873
13 1 -11.8899 14.6809 -9.30279
11 1 -10.6605 15.5036 -9.18265
12 1 -11.4842 15.4682 -9.61858
9 1 -9.22794 14.8559 -9.42042
8 1 -9.11135 13.8661 -9.38649
10 1 -10.0917 14.9943 -9.74547
7 1 -8.66058 14.2199 -10.2381
2 1 -6.44264 16.2953 -9.77268
36 1 -4.43509 14.9559 -8.46553
38 1 -4.14 15.8916 -9.57369
35 1 -3.8965 14.3605 -8.87851
6 1 -7.83088 14.2239 -10.7482
5 1 -7.74766 15.0249 -10.0836
4 1 -7.10612 15.3512 -9.48483
3 1 -6.69081 16.0522 -8.91875
47 1 -3.89301 17.9957 -8.22131
46 1 -3.26767 17.993 -8.95444
45 1 -2.81376 17.7844 -9.75168
15 1 -10.4164 14.4053 -8.42193
17 1 -10.0124 13.1336 -7.42718
16 1 -10.3189 13.9868 -7.56329
26 1 -4.44068 13.1037 -5.53458
1 1 -5.93604 17.095 -9.92936
50 1 -5.35073 17.0237 -9.09465
31 1 -2.97111 15.4745 -7.72269
32 1 -3.14032 15.5696 -8.72895
34 1 -2.95347 14.182 -8.8199
33 1 -2.44436 14.9547 -8.71292
49 1 -5.26713 16.6991 -8.16232
48 1 -4.41151 17.1541 -8.10296
18 1 -9.18421 12.9566 -6.982
24 1 -5.77503 12.0393 -5.79556
25 1 -5.13555 12.7204 -6.07363
19 1 -8.9032 12.0803 -6.76703
22 1 -7.34376 12.925 -6.17579
23 1 -6.48693 12.6201 -6.1203
27 1 -4.63798 13.9619 -5.25549
29 1 -3.52966 15.2137 -5.85024
28 1 -4.11648 14.4578 -5.85912
30 1 -3.09225 15.4556 -6.75263
20 1 -8.00435 11.8911 -6.54821
21 1 -8.11564 12.518 -5.76167
ITEM: TIMESTEP
1000000
ITEM: NUMBER OF ATOMS
100
ITEM: BOX BOUNDS ff ff ff
-5.0000000000000000e+01 5.0000000000000000e+01
-5.0000000000000000e+01 5.0000000000000000e+01
-5.0000000000000000e+01 5.0000000000000000e+01
ITEM: ATOMS id type x y z
185 1 17.6255 4.44371 -25.0769
197 1 18.0963 -0.807044 -26.3237
198 1 17.5661 -1.4978 -25.8179
196 1 18.8896 -1.17048 -26.7476
195 1 18.4228 -1.50168 -27.5449
194 1 18.7096 -0.64661 -27.9353
193 1 18.4199 0.234799 -27.5073
188 1 17.5301 3.68896 -25.7266
191 1 18.1121 1.47833 -27.2121
190 1 18.0709 2.27951 -26.7482
189 1 17.8619 2.86436 -26.0936
192 1 18.7066 1.11296 -27.8679
179 1 20.8021 3.29808 -25.1858
178 1 20.2457 2.76954 -24.6569
187 1 18.2199 3.25099 -25.2233
186 1 18.4911 4.11626 -24.835
184 1 18.0714 5.28096 -25.1334
183 1 18.2786 5.01138 -24.2505
177 1 20.8938 2.11172 -24.5963
176 1 21.3223 2.96272 -24.3273
153 1 20.1855 -3.00717 -24.8797
156 1 22.4402 -3.02153 -24.275
199 1 18.358 -1.5185 -25.2061
200 1 17.7406 -2.24896 -24.9502
151 1 18.5559 -2.60091 -25.0779
152 1 19.4813 -2.35631 -25.0515
180 1 20.0222 3.75177 -25.5481
182 1 19.0951 4.94959 -24.736
181 1 19.9836 4.65105 -25.1617
172 1 21.7715 3.34128 -22.0534
175 1 21.702 3.31471 -23.4957
173 1 22.0101 2.60011 -22.5534
174 1 22.2059 2.53162 -23.452
154 1 20.9437 -2.61451 -25.2549
155 1 21.8125 -2.94351 -25.0046
157 1 21.5209 -3.01828 -23.9596
158 1 20.9687 -2.21842 -24.0805
160 1 19.8713 -2.51051 -22.9506
161 1 20.5179 -1.77351 -22.7398
171 1 22.2877 3.36928 -21.2278
170 1 21.8732 2.90849 -20.4862
162 1 20.1484 -1.02269 -22.3281
159 1 19.9868 -2.19197 -23.8639
163 1 19.7545 -0.758989 -23.1234
164 1 19.9164 0.187892 -23.2443
165 1 20.0524 0.915835 -22.6529
167 1 20.5543 1.98079 -22.2394
166 1 20.4168 1.64027 -23.1485
168 1 20.8268 1.86206 -21.2926
169 1 21.7419 2.07168 -20.9568
23 1 -7.05431 8.25685 -13.2923
22 1 -6.099 8.37834 -13.347
32 1 -9.4671 7.09763 -12.3956
31 1 -9.0462 6.7061 -13.1293
30 1 -9.14303 7.4479 -13.7605
29 1 -8.91396 7.8606 -14.6446
27 1 -8.0147 6.28022 -14.2757
21 1 -5.2088 8.13361 -13.0241
28 1 -8.3821 7.03657 -14.782
24 1 -7.51729 7.39525 -13.4098
20 1 -4.98514 8.83998 -12.3754
19 1 -4.90858 9.71886 -12.6545
33 1 -9.9878 7.36819 -11.5933
26 1 -8.4217 5.94167 -13.4626
34 1 -10.8868 7.15178 -12.0251
35 1 -11.7686 6.9864 -11.8879
25 1 -7.63014 6.46862 -13.3063
36 1 -11.6941 7.8824 -12.2838
18 1 -4.02089 10.0529 -12.5769
17 1 -3.36614 10.7512 -12.915
15 1 -3.59908 12.3546 -13.9792
39 1 -10.9063 9.40529 -12.9343
37 1 -12.2779 8.59234 -12.0534
38 1 -11.7734 9.29497 -12.4495
16 1 -3.31028 11.6346 -13.4915
14 1 -4.16286 12.306 -13.2413
13 1 -4.00596 11.8218 -12.3868
44 1 -11.8274 9.65239 -9.57714
40 1 -10.9608 9.88168 -12.1422
42 1 -11.5266 9.57485 -10.8864
43 1 -12.372 9.5752 -10.3826
41 1 -10.8384 10.1615 -11.1754
48 1 -9.54844 11.0018 -8.97348
5 1 -5.90878 11.7296 -8.35956
6 1 -5.70032 12.2021 -9.14367
12 1 -3.11457 11.5866 -12.1923
7 1 -5.65636 12.1077 -10.1464
8 1 -4.79086 11.7219 -10.5166
10 1 -3.4192 10.6313 -11.3719
11 1 -3.06061 11.5954 -11.2172
46 1 -10.4261 9.72483 -9.7476
45 1 -11.1763 10.3471 -9.73495
49 1 -8.58585 10.9 -8.97159
47 1 -9.79139 10.1018 -9.18207
3 1 -6.43949 10.7011 -7.44117
50 1 -7.88635 10.2765 -8.7229
1 1 -7.144 10.7423 -8.32131
4 1 -5.58509 11.0312 -7.78114
2 1 -6.3388 10.1388 -8.19118
9 1 -4.179 11.0848 -10.9318
ITEM: TIMESTEP
1100000
ITEM: NUMBER OF ATOMS
100
ITEM: BOX BOUNDS ff ff ff
-5.0000000000000000e+01 5.0000000000000000e+01
-5.0000000000000000e+01 5.0000000000000000e+01
-5.0000000000000000e+01 5.0000000000000000e+01
ITEM: ATOMS id type x y z
179 1 13.7154 -4.26091 -35.1467
178 1 13.8064 -3.78797 -35.9467
177 1 12.9292 -3.44893 -36.2152
168 1 13.8044 -0.890094 -32.9537
169 1 14.1578 -1.11561 -33.7802
166 1 13.4172 -0.496227 -31.2804
167 1 13.2955 -0.60282 -32.2096
182 1 13.9306 -6.36574 -33.6025
181 1 13.9831 -5.72648 -34.2605
180 1 14.1021 -4.7789 -34.3999
193 1 17.7262 -4.20602 -31.4507
194 1 18.4028 -4.11723 -30.7978
192 1 17.2479 -4.50388 -30.6673
176 1 12.8397 -2.66762 -35.6517
170 1 13.3668 -0.76255 -34.2737
171 1 13.8038 -0.0716602 -34.8149
174 1 13.6169 -1.54435 -36.2283
172 1 14.7017 -0.47917 -35.1439
173 1 14.0697 -1.11108 -35.5574
175 1 13.7272 -2.2735 -35.6047
164 1 12.2351 -0.554759 -30.1717
165 1 12.6011 -0.871064 -31.0317
163 1 11.3333 -0.622122 -30.3368
186 1 13.4237 -4.94572 -32.8116
184 1 15.0826 -5.42987 -33.4191
185 1 14.1422 -5.29121 -33.3005
183 1 14.8424 -6.35373 -33.3492
187 1 13.8984 -4.92326 -32.0259
188 1 14.4981 -4.76035 -31.2883
189 1 15.2466 -4.80628 -30.6426
190 1 15.7135 -4.95478 -31.4935
195 1 18.3004 -3.47544 -30.0875
191 1 16.7082 -4.76845 -31.4445
162 1 11.3585 -1.28966 -29.651
160 1 11.2166 -2.07555 -28.7289
161 1 11.8039 -1.31498 -28.8128
196 1 17.7312 -2.86316 -29.6304
197 1 17.0506 -3.48646 -29.8639
154 1 15.8354 -1.44515 -28.7904
153 1 16.5517 -1.55783 -29.4094
157 1 13.7708 -1.39959 -28.5054
155 1 15.1868 -0.755761 -29.0014
156 1 14.5659 -1.51843 -29.1717
159 1 12.107 -2.33964 -28.4895
158 1 12.9008 -1.86942 -28.4551
199 1 15.6596 -3.63633 -30.4632
151 1 15.7869 -1.90396 -31.0336
152 1 16.5519 -1.87191 -30.3185
200 1 15.5624 -2.71399 -30.5365
198 1 16.5247 -3.36815 -30.6454
9 1 -20.179 1.59856 -13.8492
8 1 -19.2724 1.60585 -14.1652
10 1 -20.484 2.48327 -14.1908
6 1 -20.0126 1.32196 -15.1725
7 1 -19.254 0.907874 -14.8145
11 1 -21.1647 2.9934 -13.675
13 1 -20.6258 4.06713 -13.7289
12 1 -21.5572 3.87347 -13.9065
17 1 -20.0507 5.78087 -14.164
18 1 -20.6765 6.14954 -13.5104
4 1 -20.8788 0.237123 -14.7211
5 1 -20.6726 0.667097 -15.5584
14 1 -19.9359 4.50327 -14.2795
15 1 -19.7515 4.67573 -13.3575
16 1 -19.8745 5.62239 -13.2456
39 1 -20.7388 2.89613 -12.0596
38 1 -20.3441 2.44383 -12.8209
20 1 -19.43 7.46772 -12.9456
19 1 -19.9699 6.71057 -13.1549
37 1 -19.7928 3.23908 -12.6316
36 1 -18.9599 2.93077 -12.2408
2 1 -19.6517 -1.06866 -14.2716
3 1 -20.4649 -0.583972 -14.5084
1 1 -18.9597 -0.603138 -14.7185
50 1 -19.1846 -0.00208825 -13.8934
49 1 -18.9701 -0.0953368 -12.9716
41 1 -20.8405 3.13653 -10.9138
40 1 -21.3003 3.65679 -11.6062
35 1 -18.5564 3.80599 -12.1196
34 1 -17.614 4.08764 -12.3066
32 1 -17.0264 5.99113 -12.6139
21 1 -19.2738 8.37651 -12.7913
22 1 -19.1177 8.78451 -11.9705
23 1 -18.9958 9.68817 -12.391
27 1 -16.4803 8.26426 -11.3903
24 1 -18.0391 9.60853 -12.635
25 1 -17.5627 9.206 -11.8136
26 1 -16.7747 9.15219 -11.1592
48 1 -18.7882 0.767159 -13.2432
47 1 -19.7043 0.775559 -13.054
46 1 -20.1339 1.52186 -12.5247
42 1 -20.274 2.39092 -10.6217
45 1 -19.2521 1.6256 -12.3384
44 1 -19.4869 1.14254 -11.5146
43 1 -19.5224 1.75912 -10.755
33 1 -17.1289 5.04691 -12.3628
31 1 -17.3238 5.90064 -13.5106
29 1 -16.5744 7.2361 -12.8269
30 1 -17.3252 6.79933 -13.2638
28 1 -16.2618 7.96359 -12.2948
ITEM: TIMESTEP
1200000
ITEM: NUMBER OF ATOMS
100
ITEM: BOX BOUNDS ff ff ff
-5.0000000000000000e+01 5.0000000000000000e+01
-5.0000000000000000e+01 5.0000000000000000e+01
-5.0000000000000000e+01 5.0000000000000000e+01
ITEM: ATOMS id type x y z
168 1 10.3652 -2.23367 -41.8905
167 1 10.7233 -3.08313 -42.3906
169 1 9.71555 -2.74439 -41.3267
166 1 11.6494 -3.14439 -42.1828
165 1 11.5108 -2.80306 -41.2695
172 1 8.64981 -4.41491 -40.8646
171 1 9.11553 -3.49728 -40.8927
170 1 9.82598 -3.71282 -41.4614
164 1 11.8949 -3.72691 -41.0867
153 1 10.3541 -2.36238 -39.6399
159 1 12.0815 -0.515362 -39.4723
152 1 10.6227 -3.20663 -39.198
163 1 11.7325 -3.96092 -40.1968
162 1 12.1493 -3.08853 -39.9768
154 1 10.7086 -1.96074 -38.8512
158 1 11.309 -0.77133 -40.0564
157 1 10.8848 0.0690332 -39.7817
156 1 10.4536 -0.597899 -39.2677
177 1 9.68118 -5.97785 -36.7952
176 1 9.40033 -5.47735 -37.6264
173 1 8.8192 -4.38836 -39.9079
175 1 9.13505 -4.92015 -38.3158
174 1 8.56965 -4.48096 -39.0409
151 1 10.53 -3.3166 -38.2102
161 1 11.8844 -2.17037 -40.0782
160 1 12.4209 -1.33505 -39.9466
199 1 9.23001 -2.59673 -37.6132
155 1 11.0649 -1.02469 -38.7582
200 1 9.6202 -3.07138 -38.3426
179 1 9.91135 -5.91036 -35.1974
180 1 9.06255 -5.63043 -34.8058
181 1 9.05048 -6.52163 -34.5175
178 1 9.48962 -5.4829 -36.006
198 1 9.15009 -2.56475 -36.6758
191 1 5.2804 -1.32496 -36.5027
197 1 8.33473 -2.07659 -36.4546
187 1 5.74969 -3.23467 -35.0239
189 1 6.28533 -1.57123 -35.1986
186 1 6.32738 -3.74044 -34.4143
185 1 6.82544 -4.40404 -33.9246
183 1 8.09181 -5.62523 -33.9142
184 1 7.52903 -5.00749 -34.3628
182 1 8.84316 -6.17391 -33.6367
190 1 5.46318 -1.66005 -35.6155
188 1 6.47442 -2.48101 -35.0707
194 1 5.61101 -2.40978 -37.0389
192 1 4.71936 -2.08003 -36.5851
196 1 7.37473 -2.06891 -36.6656
195 1 6.4737 -2.45766 -36.6251
193 1 4.97507 -1.75881 -37.4637
40 1 -17.2898 -1.66618 -20.9578
43 1 -17.8699 -1.44924 -22.8976
42 1 -16.8711 -1.21248 -22.785
44 1 -17.9917 -1.14117 -23.7994
47 1 -15.953 -0.0186404 -24.1185
48 1 -16.8122 0.154489 -23.9174
45 1 -17.1042 -1.44972 -24.037
49 1 -17.5415 0.707061 -23.695
39 1 -17.6338 -2.42754 -21.3487
28 1 -20.1954 1.44415 -19.7966
38 1 -18.1941 -2.42334 -20.5653
41 1 -17.2302 -1.72779 -22.0301
46 1 -16.2524 -0.94931 -23.8457
1 1 -17.3314 1.91464 -22.3311
50 1 -17.4892 1.02982 -22.7499
9 1 -17.7209 5.74995 -18.4705
7 1 -17.4868 4.7229 -19.4848
8 1 -17.4408 5.6594 -19.3607
10 1 -18.517 5.67127 -19.0104
4 1 -16.9469 3.65717 -21.3141
3 1 -17.301 2.89826 -21.6889
2 1 -16.7544 2.64791 -22.505
37 1 -18.7783 -2.15618 -19.7674
36 1 -18.8829 -1.46347 -20.4533
35 1 -19.3198 -1.58022 -21.3774
27 1 -19.486 1.46033 -20.3511
30 1 -20.168 -0.0661183 -19.1213
29 1 -19.6624 0.678231 -19.5234
26 1 -19.3247 2.22216 -20.8911
25 1 -19.6148 2.41549 -20.0157
24 1 -20.0037 2.8061 -19.2115
6 1 -17.7695 4.78019 -20.3851
14 1 -21.4333 5.83635 -18.1106
13 1 -20.6302 5.63396 -18.5556
11 1 -19.4719 5.65885 -19.3018
12 1 -20.4148 5.7231 -19.5232
5 1 -17.7136 3.95589 -20.8503
34 1 -20.1947 -1.77342 -21.3847
33 1 -20.7783 -1.42186 -20.702
31 1 -20.3661 -0.774746 -19.7077
32 1 -20.8447 -1.66091 -19.751
23 1 -19.0884 2.76009 -18.8374
22 1 -19.3231 3.65712 -18.6569
21 1 -19.4519 3.03601 -17.9738
20 1 -19.7312 3.85837 -17.5823
15 1 -20.9254 5.48798 -17.3533
16 1 -21.3936 4.72688 -17.7608
18 1 -20.2666 3.78568 -16.5748
19 1 -19.5967 3.2344 -16.9263
17 1 -20.9073 3.89466 -17.2717
ITEM: TIMESTEP
1300000
ITEM: NUMBER OF ATOMS
100
ITEM: BOX BOUNDS ff ff ff
-5.0000000000000000e+01 5.0000000000000000e+01
-5.0000000000000000e+01 5.0000000000000000e+01
-5.0000000000000000e+01 5.0000000000000000e+01
ITEM: ATOMS id type x y z
176 1 5.52991 -17.7762 -40.2017
177 1 5.19082 -16.8233 -40.153
178 1 5.26885 -17.1592 -41.0404
180 1 5.24585 -16.2079 -41.7614
179 1 5.00713 -17.096 -41.9863
181 1 5.68419 -16.1358 -40.9128
182 1 5.47686 -15.2523 -40.5266
183 1 5.73771 -15.8586 -39.8538
175 1 4.65379 -17.7614 -39.6609
174 1 4.66779 -18.7313 -39.588
173 1 4.24173 -19.2788 -38.9418
184 1 5.66015 -15.0431 -39.3002
187 1 5.59439 -14.5798 -36.8164
188 1 6.52233 -14.2469 -36.9243
185 1 5.45792 -15.0156 -38.3408
191 1 4.86359 -12.4246 -38.1789
190 1 5.51247 -13.0613 -38.0072
189 1 6.01571 -13.6386 -37.4345
192 1 4.45869 -12.253 -39.0005
172 1 4.25568 -19.0733 -38.028
171 1 4.65292 -18.2031 -37.9735
186 1 5.89003 -15.1832 -37.4932
193 1 5.27708 -11.8243 -39.333
194 1 5.6412 -11.284 -38.6073
169 1 5.25011 -18.4488 -36.2728
170 1 5.05472 -18.6319 -37.2089
168 1 6.13997 -18.3493 -35.8876
167 1 5.79802 -17.4281 -35.5912
199 1 5.39778 -9.36209 -37.7027
198 1 5.3277 -9.1395 -38.6282
197 1 5.7154 -9.12192 -39.4923
196 1 5.87285 -9.97972 -40.0068
195 1 5.87994 -10.757 -39.4043
164 1 4.39354 -16.5711 -33.6047
166 1 5.04406 -17.0561 -34.9684
165 1 4.97111 -16.3124 -34.3348
200 1 5.30483 -9.01611 -36.7713
151 1 5.62395 -9.63776 -36.0692
162 1 4.06022 -15.3542 -33.3148
161 1 4.13535 -14.5549 -33.9332
163 1 4.89728 -15.721 -33.4281
155 1 4.29781 -11.2403 -34.4352
154 1 4.97252 -10.8041 -35.0093
152 1 6.41906 -10.091 -35.6671
153 1 5.67 -10.0991 -35.0385
160 1 3.86983 -14.2385 -33.0134
158 1 4.35651 -13.1194 -33.8978
157 1 4.22797 -12.7788 -34.7721
159 1 4.65073 -13.6108 -33.0635
156 1 4.80216 -12.0549 -34.5579
10 1 -17.9975 0.1763 -18.4762
11 1 -17.7888 0.0514817 -17.5831
8 1 -16.3743 0.958772 -18.9858
9 1 -17.0413 0.286084 -18.8467
13 1 -19.4797 0.45919 -17.4672
14 1 -19.8515 0.903624 -16.7182
3 1 -16.6314 0.362697 -20.8426
2 1 -16.5573 0.526315 -21.8017
12 1 -18.7101 0.0538923 -17.2422
7 1 -16.0673 0.0296127 -19.2329
15 1 -19.7382 1.8389 -17.1433
6 1 -15.5204 -0.567546 -19.6989
5 1 -15.6456 -1.14661 -20.4415
16 1 -19.8043 2.32107 -17.9615
4 1 -16.0311 -0.353365 -20.7368
1 1 -17.3549 0.947981 -21.43
49 1 -17.3357 2.15736 -20.3334
48 1 -17.1226 2.5992 -19.4823
47 1 -17.165 2.05414 -18.7074
45 1 -16.2387 3.06371 -17.5673
44 1 -15.5398 3.25605 -18.2476
17 1 -20.5243 1.76994 -18.3878
20 1 -20.9655 3.81551 -19.19
18 1 -20.4594 2.65243 -18.8035
19 1 -20.4578 3.10283 -19.6579
50 1 -17.1436 1.33277 -20.5898
46 1 -16.5719 2.36563 -18.089
21 1 -20.0475 3.93507 -18.8248
43 1 -15.0718 2.94085 -17.4766
42 1 -14.3656 2.26714 -17.3658
22 1 -19.3685 4.18242 -19.4092
23 1 -18.6088 4.49676 -18.9225
24 1 -17.9611 4.01069 -18.3582
25 1 -18.229 3.13693 -18.0848
31 1 -17.0302 2.44553 -14.3892
39 1 -13.737 3.2524 -16.1315
41 1 -13.6738 2.30495 -16.7331
40 1 -14.4523 2.5967 -16.2026
30 1 -17.463 2.99576 -15.0182
33 1 -16.0584 2.71033 -14.1266
38 1 -14.0659 3.64743 -15.362
26 1 -17.7855 3.43584 -17.307
27 1 -18.3161 3.07383 -16.5458
28 1 -18.9377 2.58353 -15.946
29 1 -18.1521 2.43595 -15.4853
32 1 -16.2405 1.80332 -14.5339
37 1 -14.9277 3.98184 -15.0679
36 1 -14.9505 3.13212 -14.7048
34 1 -15.4374 2.88902 -13.3937
35 1 -14.5985 2.7403 -13.8517
ITEM: TIMESTEP
1400000
ITEM: NUMBER OF ATOMS
100
ITEM: BOX BOUNDS ff ff ff
-5.0000000000000000e+01 5.0000000000000000e+01
-5.0000000000000000e+01 5.0000000000000000e+01
-5.0000000000000000e+01 5.0000000000000000e+01
ITEM: ATOMS id type x y z
182 1 10.7316 -21.7673 -27.9821
183 1 11.2033 -21.1351 -27.4444
184 1 10.9859 -20.7019 -26.6227
185 1 11.3322 -19.9025 -27.0906
186 1 10.4437 -19.7018 -27.3486
187 1 10.8127 -19.0801 -27.9184
189 1 11.0221 -18.2226 -26.6384
181 1 11.1646 -22.546 -28.1494
180 1 11.9848 -23.0242 -28.3085
179 1 11.9412 -23.3658 -27.4198
175 1 13.8216 -23.2095 -27.4626
174 1 14.2661 -23.9462 -27.1203
173 1 14.9795 -23.2961 -27.1852
188 1 10.4593 -18.3249 -27.4128
190 1 11.9616 -18.5434 -26.3478
191 1 12.6371 -18.4241 -25.6694
192 1 13.4843 -18.1994 -25.1611
177 1 12.7457 -22.3445 -26.6901
176 1 13.6487 -22.3312 -27.009
171 1 16.7827 -23.703 -26.9047
172 1 15.9107 -23.403 -27.1437
178 1 12.7901 -23.2485 -27.0168
170 1 16.6931 -23.4829 -25.989
193 1 13.103 -18.2394 -24.3173
168 1 16.1147 -22.4403 -25.4355
169 1 16.0617 -23.392 -25.2178
167 1 16.5533 -22.4404 -24.6083
166 1 16.5213 -21.5431 -24.8594
165 1 16.6888 -20.7979 -25.4
163 1 17.651 -20.5558 -24.6182
164 1 17.563 -21.1739 -25.2979
162 1 18.3873 -20.4334 -24.0538
194 1 13.7991 -17.5236 -24.1084
195 1 13.8701 -17.3631 -23.1974
196 1 14.7937 -17.7406 -23.3478
198 1 15.0489 -18.3771 -21.7322
197 1 14.5994 -17.8493 -22.38
158 1 18.6245 -19.983 -22.5759
159 1 18.2032 -20.866 -22.454
161 1 17.6876 -20.6284 -23.4508
156 1 17.1913 -18.9482 -22.5201
157 1 18.0886 -19.2649 -22.3631
160 1 17.2653 -20.6423 -22.558
153 1 15.1241 -20.0022 -22.9681
199 1 14.3539 -18.9518 -22.1924
154 1 15.9205 -19.546 -23.1616
200 1 13.9427 -19.8199 -22.3084
4 1 -12.7127 4.70762 -22.3167
42 1 -10.7179 11.3422 -21.3366
36 1 -11.1565 12.7129 -19.8899
40 1 -9.82567 12.3162 -22.0524
155 1 16.2433 -18.957 -22.4068
152 1 14.3027 -20.5908 -23.1407
151 1 13.4169 -20.146 -23.1012
5 1 -13.5321 5.13887 -22.3446
7 1 -14.0926 5.44959 -21.0785
6 1 -13.3739 5.78499 -21.6124
3 1 -12.4721 5.13886 -21.4593
50 1 -11.7368 7.70976 -21.0289
2 1 -12.0895 6.02804 -21.3539
1 1 -12.1266 6.78292 -20.8699
49 1 -10.9518 7.81778 -21.624
28 1 -14.3516 8.15746 -19.2676
47 1 -10.2308 8.23512 -22.0392
29 1 -14.441 8.95176 -19.7525
43 1 -10.02 10.6491 -21.1763
34 1 -11.4919 11.8132 -20.6656
44 1 -10.8019 10.0969 -21.3335
41 1 -10.7019 12.2372 -21.6116
35 1 -11.3377 11.6626 -19.7146
38 1 -9.56032 12.1526 -20.6487
37 1 -10.1905 12.8299 -20.207
39 1 -10.0294 12.7874 -21.2517
12 1 -13.9667 4.185 -18.6707
8 1 -14.8371 5.01517 -20.8314
11 1 -13.2813 4.09195 -19.2832
9 1 -14.4461 5.18351 -20.0151
23 1 -14.8402 7.05077 -16.8937
24 1 -15.4186 7.54893 -17.5198
25 1 -15.7286 7.73003 -18.3945
26 1 -15.7237 7.27691 -19.2838
48 1 -10.3733 7.319 -22.2018
21 1 -15.3772 5.40481 -17.1352
20 1 -15.9029 5.09586 -16.4078
27 1 -14.8158 7.3873 -19.4012
45 1 -10.3209 9.5093 -21.9928
46 1 -9.61823 8.8961 -22.1637
30 1 -13.8065 9.6922 -19.8039
32 1 -13.1221 10.9734 -20.7169
33 1 -12.1473 11.1731 -20.444
31 1 -13.7799 10.6613 -20.0311
14 1 -15.6242 3.43437 -18.5286
13 1 -14.6999 3.54658 -18.6394
10 1 -13.5953 4.90234 -19.7847
18 1 -14.457 3.80399 -16.4596
19 1 -15.1025 4.56379 -16.4171
22 1 -14.7818 6.14894 -17.1104
15 1 -15.8447 4.0318 -17.8413
16 1 -15.6215 3.66143 -16.9665
17 1 -15.0564 3.01529 -16.462
ITEM: TIMESTEP
1500000
ITEM: NUMBER OF ATOMS
100
ITEM: BOX BOUNDS ff ff ff
-5.0000000000000000e+01 5.0000000000000000e+01
-5.0000000000000000e+01 5.0000000000000000e+01
-5.0000000000000000e+01 5.0000000000000000e+01
ITEM: ATOMS id type x y z
180 1 24.1117 -24.6783 -36.1127
181 1 24.0523 -24.1712 -35.2709
179 1 23.7177 -23.9147 -36.5898
178 1 23.1436 -24.3264 -35.9248
175 1 22.6909 -22.3272 -35.3458
176 1 23.0382 -23.2188 -35.1129
177 1 23.0864 -23.3714 -36.0631
172 1 23.4954 -20.6391 -36.2254
174 1 22.6474 -21.7594 -36.1555
173 1 22.8154 -20.8782 -35.6707
171 1 23.18 -19.7463 -35.825
170 1 23.7639 -20.1337 -35.149
169 1 24.0811 -19.91 -34.3346
182 1 23.3198 -24.5575 -34.7893
183 1 23.7041 -25.0852 -34.0465
168 1 24.0424 -18.8535 -34.2616
167 1 24.2607 -18.1058 -33.7205
166 1 24.7079 -18.1379 -34.6619
163 1 26.2977 -19.1279 -35.321
164 1 25.9524 -18.2612 -35.09
185 1 25.6408 -25.3227 -34.2275
186 1 25.7218 -24.5971 -33.5565
184 1 24.6714 -25.2981 -34.3369
192 1 25.9503 -22.6125 -34.0565
191 1 26.3636 -22.9032 -34.9056
165 1 25.5379 -17.609 -34.5793
162 1 26.6327 -19.7052 -36.0551
160 1 28.1619 -19.3014 -35.1206
156 1 29.1837 -18.5089 -33.2563
161 1 27.476 -19.332 -35.809
159 1 29.0329 -19.7289 -35.0029
158 1 28.8405 -19.2479 -34.1699
157 1 28.8857 -18.265 -34.1152
188 1 25.4921 -23.8914 -34.5993
187 1 25.8326 -23.6677 -33.7136
190 1 26.0773 -23.0419 -35.8383
189 1 25.7074 -23.8728 -35.5004
193 1 25.5688 -22.6327 -33.2506
196 1 25.7553 -21.1664 -32.3676
195 1 25.6651 -21.8661 -31.7546
194 1 25.2562 -22.5802 -32.2912
152 1 26.9415 -18.5156 -31.1615
200 1 26.1303 -18.824 -31.6472
151 1 26.8242 -18.3152 -32.0739
153 1 27.8574 -18.0331 -30.9454
154 1 28.1883 -18.6706 -31.5658
155 1 28.7225 -18.5946 -32.4133
197 1 25.5996 -20.5396 -33.1291
198 1 26.4567 -20.1282 -33.1531
199 1 26.4253 -19.517 -32.3826
50 1 -21.4427 2.97077 -14.5611
23 1 -12.9105 2.9031 -13.1126
13 1 -17.8104 2.34458 -11.7819
48 1 -21.1665 3.74318 -15.7859
49 1 -20.8052 3.00713 -15.2573
46 1 -22.5217 2.82964 -15.8932
2 1 -20.902 3.49831 -13.6377
1 1 -21.2162 3.84343 -14.4811
7 1 -20.0724 1.17388 -12.3476
4 1 -20.5 2.95636 -12.7091
6 1 -21.0361 1.56642 -12.4121
15 1 -16.7234 1.83416 -13.1401
47 1 -21.6698 3.17957 -16.3035
3 1 -19.9688 3.14435 -13.475
20 1 -14.6395 2.70609 -12.6788
22 1 -13.3489 2.08958 -12.9785
21 1 -13.8561 2.45834 -12.2717
26 1 -14.1398 4.60158 -13.313
24 1 -13.7596 3.21781 -13.5457
25 1 -14.0746 3.77554 -12.7797
29 1 -16.6294 3.83043 -14.1559
27 1 -14.9659 4.76457 -13.7822
28 1 -15.8338 4.38623 -13.7478
12 1 -17.5802 1.44893 -11.9227
8 1 -19.8408 0.261869 -12.2798
11 1 -18.0125 1.73139 -12.6772
10 1 -18.7656 1.13799 -12.6613
14 1 -17.0604 2.44199 -12.3903
45 1 -22.3326 3.53523 -15.2717
44 1 -22.812 4.07604 -14.6537
43 1 -23.2088 3.73802 -13.8362
5 1 -20.3518 2.03571 -12.8946
9 1 -18.8444 0.2859 -12.3187
16 1 -17.0968 2.37263 -13.8329
17 1 -16.4352 3.02011 -13.472
41 1 -23.22 2.58135 -13.6267
38 1 -22.9196 3.84944 -12.6277
18 1 -16.0207 2.753 -12.6606
19 1 -15.3492 2.55599 -13.2791
37 1 -22.4064 4.55462 -13.0391
36 1 -22.4002 5.02928 -13.8435
34 1 -20.6292 5.24391 -14.181
35 1 -21.4341 4.81841 -13.9492
31 1 -17.9536 4.76573 -14.4713
30 1 -17.0371 4.66349 -14.1739
40 1 -22.9843 2.80242 -12.6947
42 1 -23.8202 3.06554 -14.1402
39 1 -22.4118 3.30919 -13.2688
33 1 -19.6683 5.08003 -14.3116
32 1 -18.7603 4.92427 -13.9591
ITEM: TIMESTEP
1600000
ITEM: NUMBER OF ATOMS
100
ITEM: BOX BOUNDS ff ff ff
-5.0000000000000000e+01 5.0000000000000000e+01
-5.0000000000000000e+01 5.0000000000000000e+01
-5.0000000000000000e+01 5.0000000000000000e+01
ITEM: ATOMS id type x y z
188 1 29.5978 -23.4645 -47.1917
187 1 28.957 -23.06 -46.6415
194 1 28.8518 -20.4612 -45.1578
179 1 29.5718 -23.4933 -45.1131
184 1 28.6325 -23.7186 -45.6985
185 1 28.0341 -23.5692 -46.4314
186 1 28.4973 -23.7361 -47.178
191 1 30.1493 -21.8399 -46.3835
190 1 29.9812 -22.8261 -46.4296
189 1 30.4088 -23.6058 -46.6863
195 1 29.0555 -19.9502 -44.31
196 1 29.2946 -20.6427 -43.6349
193 1 29.5635 -20.191 -45.8248
192 1 29.6579 -21.1646 -45.8864
180 1 29.5793 -22.6588 -44.5721
181 1 28.9538 -21.9626 -44.3279
177 1 30.3138 -25.2503 -44.9735
178 1 30.0682 -24.3462 -45.0122
173 1 30.8979 -26.5325 -43.7486
182 1 28.2883 -22.0182 -45.0276
183 1 28.2722 -22.9443 -45.2853
175 1 29.8704 -27.0323 -44.6203
174 1 30.1219 -27.142 -43.6736
172 1 31.129 -25.8191 -43.1627
197 1 28.7912 -20.8535 -42.8082
176 1 30.2543 -26.1457 -44.8421
170 1 29.6873 -24.9232 -42.6624
171 1 30.5134 -25.4712 -42.5095
169 1 29.6248 -24.2977 -41.9335
199 1 27.2084 -20.0548 -43.1541
200 1 27.1188 -20.715 -43.8622
151 1 26.3262 -21.1543 -43.4605
198 1 28.0165 -20.4925 -43.25
160 1 26.6775 -24.6964 -41.137
159 1 26.1706 -24.0714 -41.5985
152 1 26.049 -22.0248 -43.5028
153 1 25.7905 -22.8945 -43.833
161 1 26.556 -25.5314 -41.7217
162 1 27.5102 -25.2418 -41.883
168 1 29.7403 -23.344 -41.8674
167 1 30.1878 -23.0629 -41.1057
163 1 28.1655 -24.8398 -41.3324
165 1 28.5162 -23.253 -40.7818
166 1 29.3833 -23.1034 -40.5223
158 1 25.5804 -23.4424 -41.1062
157 1 24.9341 -23.434 -41.8031
155 1 25.7987 -23.8398 -42.8864
156 1 24.8523 -23.7987 -42.7082
154 1 25.395 -23.7727 -43.7547
164 1 28.705 -24.0603 -41.1972
46 1 -22.3427 10.9147 -12.214
47 1 -22.7735 11.8211 -12.0383
48 1 -23.1016 12.4587 -11.4407
49 1 -23.0544 11.5978 -10.9145
50 1 -22.2701 12.1564 -10.7126
1 1 -22.0661 12.1041 -9.7655
42 1 -24.3863 9.50039 -11.4439
43 1 -23.5677 9.46549 -11.9446
44 1 -22.6911 9.87241 -11.6707
45 1 -22.004 10.5827 -11.3567
3 1 -21.3709 13.8423 -9.53924
2 1 -21.8843 13.0572 -9.82748
7 1 -21.9587 16.06 -11.0219
9 1 -22.5529 16.4194 -9.65261
10 1 -21.8938 15.8488 -9.28066
11 1 -21.2022 15.2188 -9.41131
38 1 -24.0984 10.2329 -9.11505
41 1 -23.7034 9.31172 -10.7941
40 1 -23.1956 9.29928 -10.0153
39 1 -23.8361 9.99725 -10.024
4 1 -21.4948 14.4042 -10.264
5 1 -22.0621 15.0112 -9.83556
6 1 -22.6235 15.59 -10.4503
8 1 -21.7788 16.6019 -10.2592
12 1 -20.4552 14.9333 -8.82863
13 1 -21.0024 14.328 -8.30335
35 1 -23.1476 10.0429 -7.40228
37 1 -24.2645 10.2624 -8.18125
36 1 -24.0655 10.0782 -7.28147
31 1 -21.16 11.6471 -9.39831
28 1 -18.9745 11.9526 -8.77668
25 1 -18.9382 13.0898 -8.00479
19 1 -19.5234 15.333 -6.23677
17 1 -21.1744 15.1528 -6.23692
14 1 -21.2865 14.7853 -7.50434
15 1 -21.6558 14.3016 -6.80341
16 1 -21.9287 14.6436 -5.96326
34 1 -23.0524 10.798 -8.08098
32 1 -21.9457 11.0285 -9.29377
33 1 -22.9003 11.0105 -9.05923
30 1 -20.6708 12.2543 -8.82408
29 1 -19.8439 11.7596 -9.15641
26 1 -18.2489 12.5289 -8.36557
27 1 -18.5018 12.579 -9.28496
21 1 -17.8499 14.6965 -5.62056
23 1 -18.4347 14.139 -6.45856
24 1 -18.6221 13.6407 -7.25066
18 1 -20.3051 14.7584 -5.89695
20 1 -18.7353 14.9812 -5.68057
22 1 -17.6085 14.5936 -6.5581
ITEM: TIMESTEP
1700000
ITEM: NUMBER OF ATOMS
100
ITEM: BOX BOUNDS ff ff ff
-5.0000000000000000e+01 5.0000000000000000e+01
-5.0000000000000000e+01 5.0000000000000000e+01
-5.0000000000000000e+01 5.0000000000000000e+01
ITEM: ATOMS id type x y z
180 1 16.0486 -22.9027 -40.2974
181 1 15.6339 -22.5226 -39.4652
179 1 16.9609 -22.8483 -40.1718
176 1 17.6281 -20.7448 -39.9611
177 1 17.2658 -21.4201 -40.4407
178 1 17.2619 -22.2966 -40.8266
175 1 17.4446 -20.1818 -40.7163
173 1 17.7477 -20.3139 -41.7292
174 1 18.0383 -20.8639 -40.9925
199 1 21.0771 -21.5659 -42.3366
172 1 18.7252 -20.3059 -41.8573
200 1 21.2341 -22.1991 -43.0069
151 1 22.1606 -22.1235 -42.6304
153 1 23.3277 -20.9181 -41.8369
152 1 22.8844 -21.5744 -42.3865
154 1 22.6933 -20.75 -41.1117
155 1 22.2908 -19.9887 -41.5457
157 1 21.006 -20.5407 -40.1193
182 1 16.5347 -22.354 -39.1275
183 1 16.7595 -21.8591 -38.3699
184 1 17.0585 -22.7067 -38.1721
185 1 17.9953 -22.5961 -37.9996
186 1 18.8621 -22.6314 -38.4192
187 1 19.7657 -22.6544 -38.8412
188 1 20.3225 -23.1376 -39.5198
190 1 20.6945 -24.4984 -38.9898
189 1 20.5585 -23.9975 -39.8112
198 1 20.7204 -21.4826 -41.4496
197 1 21.3448 -22.1621 -41.3559
196 1 22.0089 -21.8725 -40.695
195 1 22.0215 -22.5463 -39.9737
194 1 22.0211 -22.99 -39.0267
171 1 19.4267 -19.8783 -41.3277
170 1 18.8999 -19.1163 -41.3321
169 1 19.472 -18.765 -40.5503
168 1 19.069 -18.3509 -39.7509
156 1 21.6953 -20.304 -40.8006
158 1 21.5643 -20.9527 -39.4437
159 1 22.2461 -20.2644 -39.484
167 1 19.3561 -17.8604 -39.0332
166 1 20.2442 -18.1424 -39.0828
193 1 21.098 -22.7696 -39.0502
191 1 21.3992 -24.5632 -38.3021
192 1 21.3205 -23.6225 -38.6814
161 1 22.0282 -18.5109 -39.6032
160 1 22.3868 -19.3419 -39.3849
165 1 20.6447 -18.9059 -38.5567
164 1 21.1999 -18.1782 -38.3166
163 1 21.9162 -17.7991 -38.8812
162 1 21.7512 -17.6056 -39.7771
1 1 -25.5333 11.9715 -10.9975
49 1 -24.0257 11.1442 -11.0618
50 1 -24.8225 11.5481 -10.5852
48 1 -23.806 12.0146 -10.8109
7 1 -28.3847 11.4913 -8.74572
6 1 -27.4819 11.4126 -9.1366
9 1 -28.6554 13.0289 -8.6873
8 1 -29.0265 12.1397 -8.71248
2 1 -26.2744 11.5979 -11.4652
3 1 -27.1412 11.2398 -11.4479
4 1 -27.7678 11.2337 -10.7479
47 1 -22.9486 11.5141 -10.6636
46 1 -22.0911 11.9863 -10.5891
5 1 -27.8323 11.7586 -9.93402
34 1 -22.7157 14.3733 -9.09189
11 1 -27.6247 13.4339 -8.94032
10 1 -28.3653 13.4808 -9.51707
43 1 -23.6468 12.8953 -10.0392
45 1 -22.7129 12.157 -9.88399
44 1 -22.6935 13.0913 -10.3062
35 1 -22.8172 13.5144 -8.6387
33 1 -23.1985 15.2021 -9.33547
12 1 -28.2422 14.1429 -8.54485
13 1 -27.5761 14.7679 -8.17228
32 1 -22.5283 15.4493 -9.95242
30 1 -23.7959 15.7373 -10.1025
31 1 -23.1722 15.2388 -10.6592
42 1 -24.478 12.4494 -9.83034
41 1 -25.375 12.7193 -9.50253
39 1 -24.6993 12.1117 -8.05825
40 1 -25.4593 12.156 -8.69513
16 1 -27.591 15.7586 -5.97291
38 1 -23.8256 11.9756 -7.78062
36 1 -23.2108 13.7051 -7.79825
37 1 -23.8327 12.9547 -7.92793
14 1 -28.1221 14.9728 -7.41466
15 1 -28.0125 15.6917 -6.80163
29 1 -24.4947 15.5694 -9.46252
28 1 -24.4762 16.2263 -8.72746
17 1 -26.7338 16.1076 -5.82114
18 1 -26.8542 16.5898 -5.02705
21 1 -25.4246 16.6198 -5.69919
20 1 -25.3697 16.7343 -4.76415
19 1 -26.1292 16.3133 -4.40145
25 1 -25.4951 16.2183 -7.20207
22 1 -25.8037 17.1531 -6.49082
23 1 -26.6062 16.9113 -6.97244
24 1 -26.4336 15.9329 -7.12294
26 1 -24.6968 16.0101 -7.80596
27 1 -24.6952 15.3364 -8.45656
ITEM: TIMESTEP
1800000
ITEM: NUMBER OF ATOMS
100
ITEM: BOX BOUNDS ff ff ff
-5.0000000000000000e+01 5.0000000000000000e+01
-5.0000000000000000e+01 5.0000000000000000e+01
-5.0000000000000000e+01 5.0000000000000000e+01
ITEM: ATOMS id type x y z
176 1 16.1039 -29.8431 -48.0784
177 1 17.0779 -30.0073 -47.9738
178 1 18.0746 -30.1329 -47.8511
180 1 18.6303 -30.8882 -49.2963
181 1 18.7979 -29.9681 -49.4183
183 1 18.8011 -28.3423 -48.6454
184 1 19.4938 -29.023 -48.8661
185 1 20.3373 -28.9867 -48.4406
174 1 15.7189 -31.2556 -46.9985
173 1 14.7763 -31.1966 -47.2411
153 1 18.8857 -32.2079 -45.4221
161 1 17.9126 -30.9203 -44.1835
175 1 16.0365 -30.4615 -47.3671
160 1 18.0549 -30.6133 -45.0935
159 1 18.085 -29.9676 -45.7914
179 1 18.9054 -30.6091 -48.3617
157 1 18.7037 -29.5236 -46.6301
158 1 19.0699 -29.8382 -45.8157
182 1 18.5564 -28.9355 -49.3523
191 1 22.5369 -30.0922 -46.3826
189 1 22.7525 -29.4645 -47.4672
190 1 22.0304 -30.0398 -47.2487
186 1 21.034 -29.3754 -47.7937
188 1 22.134 -28.8625 -47.1439
187 1 21.2445 -28.9976 -46.9771
172 1 14.8195 -31.9893 -46.7868
171 1 15.3319 -32.8136 -46.6189
170 1 15.0126 -33.418 -45.9622
155 1 18.8771 -31.3549 -47.092
154 1 19.1341 -31.8858 -46.2866
152 1 19.4229 -32.906 -45.8879
151 1 20.0576 -32.4216 -45.4404
163 1 18.0235 -32.2616 -44.1988
166 1 17.2975 -34.1253 -45.9664
165 1 17.1134 -33.2259 -45.6208
162 1 17.2724 -31.6377 -44.4395
156 1 18.5306 -30.5067 -46.6498
194 1 22.4791 -31.6381 -44.5552
193 1 22.432 -31.1099 -45.3574
192 1 21.8413 -30.5138 -45.7764
169 1 14.9644 -34.4216 -45.8757
167 1 16.4356 -34.4457 -45.7645
168 1 15.6704 -35.0029 -45.9205
200 1 20.6965 -31.6339 -45.562
199 1 20.4425 -30.6848 -45.2766
196 1 21.3206 -31.1435 -44.2308
195 1 22.2257 -30.7571 -44.1271
164 1 17.6094 -32.8236 -44.8843
197 1 21.0764 -30.2937 -43.9275
198 1 20.1822 -30.5518 -44.3468
29 1 -25.694 19.3744 -4.95115
26 1 -27.4788 20.7563 -6.24326
30 1 -24.8812 19.24 -5.45112
31 1 -23.9585 19.1658 -5.12368
32 1 -23.4619 18.9845 -4.28536
33 1 -24.0726 18.4901 -3.84588
25 1 -27.5021 20.1594 -5.5758
28 1 -26.1126 19.7942 -5.74278
23 1 -28.8002 20.3432 -4.65293
24 1 -28.2395 20.6706 -5.34639
27 1 -26.605 20.6534 -5.89952
34 1 -24.1105 19.1226 -3.15042
35 1 -24.2011 20.1437 -2.94743
36 1 -25.1121 20.1437 -3.29159
11 1 -32.0014 20.4222 -1.34856
12 1 -32.8431 20.6696 -1.56039
13 1 -32.957 19.9619 -0.873669
15 1 -32.3716 19.3553 -1.94983
14 1 -33.181 19.2701 -1.46231
18 1 -30.6358 19.0782 -2.60813
19 1 -29.7438 18.881 -2.23785
22 1 -28.4637 19.9025 -3.84888
20 1 -29.4676 19.0536 -3.0772
21 1 -28.7467 19.6474 -2.99876
37 1 -25.2034 20.2376 -2.36685
38 1 -25.06 21.1666 -2.35677
16 1 -31.9531 19.7268 -2.70913
10 1 -31.357 20.7826 -0.706829
9 1 -30.9422 21.5101 -1.13317
8 1 -30.0863 21.1838 -0.754932
17 1 -31.0755 19.7439 -3.10728
2 1 -26.7573 20.5605 0.0403134
1 1 -26.2083 21.1892 -0.485135
7 1 -29.4853 21.7454 -1.30474
39 1 -24.5649 21.7007 -2.9462
42 1 -23.8526 22.3971 -1.46314
41 1 -23.3226 22.7346 -2.20219
3 1 -27.5094 19.96 0.0304572
50 1 -25.3378 21.3888 -0.0380773
6 1 -28.7586 21.2754 -0.895806
5 1 -29.1584 20.9176 -0.0226311
4 1 -28.2615 20.5167 0.28403
48 1 -24.3098 22.0326 1.34943
49 1 -24.5819 21.4529 0.562382
45 1 -23.8142 22.6803 0.421927
43 1 -23.0567 22.5891 -0.951327
47 1 -23.7561 21.203 1.13489
46 1 -23.4499 21.72 0.425486
40 1 -23.8978 22.4145 -2.96295
44 1 -23.7113 23.1031 -0.465608
ITEM: TIMESTEP
1900000
ITEM: NUMBER OF ATOMS
100
ITEM: BOX BOUNDS ff ff ff
-5.0000000000000000e+01 5.0000000000000000e+01
-5.0000000000000000e+01 5.0000000000000000e+01
-5.0000000000000000e+01 5.0000000000000000e+01
ITEM: ATOMS id type x y z
175 1 27.2726 -21.3824 -34.1539
176 1 27.486 -20.6943 -34.8016
173 1 28.4367 -22.6871 -34.6968
174 1 28.0107 -21.9204 -34.3747
177 1 27.8245 -19.8658 -34.6065
170 1 28.759 -22.7834 -33.5931
171 1 29.4257 -22.0005 -33.6335
172 1 29.2435 -22.1256 -34.6111
178 1 28.1837 -19.419 -35.3427
179 1 28.7548 -18.6906 -35.0606
180 1 29.2077 -18.3049 -34.296
181 1 29.7966 -18.0967 -33.549
169 1 27.8343 -22.7017 -33.6676
168 1 27.979 -23.0592 -32.8255
167 1 28.1612 -22.6774 -31.9319
183 1 28.9412 -18.076 -32.2261
182 1 29.7276 -18.3899 -32.6245
184 1 28.7015 -18.9735 -32.4628
185 1 28.4895 -19.3838 -31.6149
187 1 29.1372 -19.2035 -29.9962
186 1 28.9129 -18.9686 -30.8704
163 1 28.4342 -20.1764 -29.5647
164 1 28.7328 -20.8751 -30.1879
166 1 28.1969 -21.8006 -31.4913
165 1 27.9768 -21.3125 -30.6959
189 1 29.5693 -17.6238 -29.2143
188 1 29.0681 -18.271 -29.9048
161 1 28.6972 -21.1102 -28.2862
160 1 27.7176 -21.2355 -28.1422
162 1 28.8771 -20.2532 -28.723
158 1 26.7155 -20.2636 -27.2116
159 1 27.2843 -20.3926 -28.0475
156 1 27.8532 -19.4314 -27.1415
157 1 26.932 -19.2854 -27.4354
190 1 29.786 -18.5226 -29.1081
195 1 29.5687 -16.8258 -27.3699
191 1 30.5864 -18.359 -28.6975
155 1 28.6394 -20.0964 -26.9082
154 1 29.0507 -19.853 -27.6972
194 1 30.4746 -16.3808 -27.405
197 1 27.9881 -17.3489 -26.8838
196 1 28.6487 -16.9218 -27.5124
192 1 31.1352 -17.5471 -28.4466
193 1 31.0405 -17.1292 -27.5484
153 1 29.3308 -19.2317 -26.9798
152 1 29.2586 -18.2633 -26.9188
151 1 28.528 -18.807 -26.3851
200 1 29.0709 -18.3861 -25.6815
198 1 28.6424 -16.806 -26.5296
199 1 28.7142 -17.5264 -25.9227
29 1 -25.5632 17.5697 -8.26072
30 1 -25.6119 16.764 -8.79496
28 1 -24.9055 17.5597 -7.53726
27 1 -25.047 18.4614 -7.14344
24 1 -25.5349 18.6369 -5.55853
25 1 -25.0054 18.2829 -6.2139
34 1 -27.1412 15.7021 -7.26081
33 1 -26.4652 15.3715 -6.68672
31 1 -25.8822 16.0252 -8.28117
32 1 -26.037 15.9552 -7.32167
26 1 -25.518 17.6989 -6.78563
22 1 -26.124 20.1974 -5.89446
20 1 -27.4462 20.5521 -6.85001
23 1 -26.2761 19.2275 -5.82321
19 1 -28.0269 21.2605 -7.10277
12 1 -24.9315 20.522 -7.74663
13 1 -25.6855 21.0407 -7.29988
14 1 -25.2518 21.6121 -6.64969
35 1 -27.6 15.9416 -6.50503
36 1 -27.3256 16.7139 -6.03605
40 1 -28.1748 16.2613 -4.32782
38 1 -26.6478 15.8844 -5.08904
37 1 -26.4162 16.407 -5.90304
39 1 -27.2526 16.267 -4.43792
5 1 -25.1431 21.1753 -3.11937
6 1 -25.1955 21.328 -4.10866
7 1 -24.7909 21.7497 -4.84887
21 1 -26.9677 20.6237 -6.05008
1 1 -26.6411 19.1001 -2.82464
9 1 -24.2821 21.1441 -5.66043
8 1 -24.3556 22.101 -5.63838
17 1 -27.4963 22.5226 -6.40777
18 1 -28.2937 22.0561 -6.63223
11 1 -24.2699 20.0601 -7.21289
10 1 -24.0503 20.4926 -6.32454
16 1 -26.5888 22.1592 -6.48995
15 1 -25.8103 22.1173 -6.03884
43 1 -28.7974 18.2297 -4.79152
41 1 -27.6943 17.0297 -3.89006
42 1 -28.2215 17.5843 -4.38328
44 1 -29.5664 18.215 -4.21579
45 1 -29.3852 18.4146 -3.2866
46 1 -29.2895 19.2678 -2.8114
4 1 -25.247 20.5933 -2.34068
47 1 -29.3421 20.2241 -2.88081
48 1 -28.4203 20.3112 -3.16021
50 1 -27.546 19.3182 -2.5191
49 1 -27.4999 20.1684 -2.96368
2 1 -25.945 19.7412 -2.53601
3 1 -24.9927 19.7586 -2.57262
ITEM: TIMESTEP
2000000
ITEM: NUMBER OF ATOMS
100
ITEM: BOX BOUNDS ff ff ff
-5.0000000000000000e+01 5.0000000000000000e+01
-5.0000000000000000e+01 5.0000000000000000e+01
-5.0000000000000000e+01 5.0000000000000000e+01
ITEM: ATOMS id type x y z
186 1 25.7215 -14.8 -34.8698
185 1 26.6929 -14.8188 -34.8643
184 1 27.1501 -14.0501 -35.2295
191 1 24.0794 -14.4978 -34.5246
192 1 24.1305 -15.424 -34.1258
190 1 24.0533 -13.8999 -33.8413
187 1 25.6532 -13.8549 -34.7627
188 1 25.1226 -14.0689 -33.977
189 1 24.6183 -14.5434 -33.359
182 1 28.4319 -13.1266 -34.8108
183 1 27.7893 -13.4066 -35.4859
181 1 27.8336 -13.2549 -34.0181
151 1 27.5542 -19.2469 -34.248
152 1 27.7316 -19.0294 -33.3618
194 1 25.03 -16.2104 -33.2642
195 1 25.9005 -15.8544 -33.0835
193 1 24.668 -16.2849 -34.1175
153 1 28.4909 -18.4461 -33.4649
154 1 28.507 -17.9929 -32.5752
196 1 26.1358 -16.5226 -33.7879
180 1 28.6276 -12.9257 -33.5815
177 1 27.0333 -12.5155 -31.8735
179 1 28.3446 -12.2644 -32.8836
160 1 30.7521 -17.7785 -32.3697
157 1 29.9897 -16.6303 -33.2831
159 1 30.1 -17.3019 -31.8335
158 1 29.9666 -16.3692 -32.3496
197 1 26.2033 -16.9657 -34.6843
198 1 26.8529 -17.4741 -35.3114
199 1 27.7231 -17.8692 -35.3629
200 1 27.4215 -18.7969 -35.0681
155 1 29.4657 -18.0235 -32.6827
156 1 29.3453 -17.0509 -32.6792
176 1 26.651 -13.3692 -32.0792
174 1 26.0907 -14.3205 -31.8438
175 1 25.7955 -13.4838 -31.5735
178 1 27.5682 -12.7229 -32.6116
161 1 31.4852 -18.0994 -31.7324
162 1 30.8119 -17.7122 -31.1676
169 1 26.5556 -17.0523 -30.7849
170 1 26.775 -16.1805 -30.5408
166 1 27.9453 -18.3349 -31.304
171 1 26.1977 -15.7206 -31.2284
172 1 25.5656 -14.9464 -31.2667
173 1 25.5535 -15.0522 -32.1897
168 1 27.2303 -17.813 -30.5837
167 1 27.0043 -18.0514 -31.5225
163 1 30.2921 -18.4113 -30.6902
165 1 28.7735 -18.0934 -30.9002
164 1 29.58 -18.3687 -31.3309
35 1 -26.7569 15.6587 -18.3767
36 1 -26.7037 16.3336 -19.0201
39 1 -27.3548 18.6589 -20.2492
40 1 -27.5611 19.2307 -19.612
37 1 -27.1545 16.8983 -19.7138
38 1 -27.5121 17.7474 -20.0581
47 1 -28.7769 22.2019 -19.3535
49 1 -28.1781 23.703 -18.3299
34 1 -26.8103 16.4599 -17.8326
33 1 -26.8349 16.899 -16.9938
41 1 -26.6402 19.5771 -19.9999
32 1 -26.6839 16.536 -16.0875
31 1 -26.2472 15.7208 -15.7471
42 1 -26.135 20.2021 -20.4946
45 1 -28.4429 21.4534 -20.3693
46 1 -28.1789 22.3061 -20.073
48 1 -28.3258 22.7496 -18.6941
1 1 -29.0668 23.4957 -16.9377
50 1 -28.2751 23.9354 -17.3794
30 1 -25.382 16.1434 -15.5782
29 1 -24.8914 16.6327 -14.9292
44 1 -28.0094 20.6196 -20.5624
43 1 -27.0421 20.4014 -20.7002
28 1 -24.5484 17.5351 -14.9977
4 1 -29.4573 21.6611 -15.0211
5 1 -28.8931 22.367 -14.5963
2 1 -28.8022 22.8888 -16.206
3 1 -29.4049 22.3273 -15.6766
25 1 -26.8668 18.4213 -14.442
27 1 -25.5605 17.6681 -14.8999
26 1 -26.5413 17.6135 -14.7497
9 1 -30.1235 23.0132 -12.8291
7 1 -28.5489 22.3143 -13.0546
6 1 -28.4205 22.9178 -13.9155
8 1 -29.1427 22.8688 -12.5936
24 1 -27.2254 19.2785 -14.21
23 1 -27.1107 19.4657 -13.2067
21 1 -27.1198 21.0379 -13.3278
20 1 -26.9909 21.9953 -13.4888
18 1 -26.9528 21.7185 -11.8678
10 1 -30.0371 23.4051 -12.0311
12 1 -28.6643 22.6092 -11.6664
11 1 -29.3402 23.3542 -11.4211
13 1 -27.7185 22.8867 -11.4192
22 1 -26.6631 20.2362 -13.6451
19 1 -26.4689 21.6577 -12.7209
16 1 -26.4307 22.846 -11.8691
17 1 -26.367 22.1276 -11.2169
14 1 -27.7083 23.6652 -12.0439
15 1 -26.7521 23.8311 -12.0478
ITEM: TIMESTEP
2100000
ITEM: NUMBER OF ATOMS
100
ITEM: BOX BOUNDS ff ff ff
-5.0000000000000000e+01 5.0000000000000000e+01
-5.0000000000000000e+01 5.0000000000000000e+01
-5.0000000000000000e+01 5.0000000000000000e+01
ITEM: ATOMS id type x y z
187 1 23.4226 -20.3371 -29.3103
188 1 23.6834 -21.2189 -28.9878
166 1 23.2012 -16.0774 -27.2677
165 1 23.3918 -15.7303 -26.4234
151 1 26.736 -18.7343 -26.3516
153 1 26.6953 -16.9758 -26.2881
170 1 23.8972 -17.4463 -29.6933
167 1 23.3862 -16.0995 -28.2357
164 1 24.1567 -15.8569 -25.9181
162 1 23.472 -14.8818 -25.2173
163 1 23.8466 -15.7342 -24.959
161 1 24.3438 -14.8493 -25.5907
186 1 23.4188 -19.4241 -29.5945
184 1 23.7835 -18.9913 -27.8567
185 1 23.4243 -19.2609 -28.6792
189 1 22.831 -21.4433 -28.5503
190 1 23.0475 -21.1153 -27.6677
173 1 21.7511 -17.5842 -29.33
172 1 22.6729 -17.2374 -29.401
181 1 23.3556 -19.6072 -25.6212
182 1 23.7058 -19.0144 -26.2035
171 1 23.1766 -17.9424 -29.9363
168 1 23.8044 -16.886 -28.529
200 1 25.8451 -18.3658 -26.4031
198 1 25.4162 -20.0757 -26.1889
199 1 25.4412 -19.1762 -26.0912
152 1 27.1564 -17.8403 -26.1518
169 1 24.3483 -17.6583 -28.8327
160 1 24.5943 -14.7008 -26.5426
159 1 25.4584 -14.2071 -26.6269
154 1 25.8962 -16.4029 -26.3659
158 1 25.7181 -14.5143 -27.5205
155 1 25.9897 -15.4915 -26.7109
157 1 26.6318 -14.6868 -27.627
156 1 26.2905 -15.5598 -27.6345
183 1 24.0736 -18.6717 -27.0179
192 1 24.9094 -21.4743 -27.1099
191 1 23.9511 -21.4013 -27.3728
174 1 20.9443 -18.1269 -29.0147
175 1 21.1094 -19.0005 -28.6559
180 1 22.6403 -18.9358 -25.2838
179 1 22.5865 -19.1779 -26.1776
195 1 26.4669 -21.3372 -25.3366
196 1 26.0048 -20.6186 -24.8996
197 1 25.6782 -19.8692 -25.3579
193 1 24.7843 -21.501 -26.1161
177 1 21.8626 -18.6542 -26.9421
176 1 21.5219 -18.6545 -27.8145
178 1 21.7724 -18.6739 -25.9646
194 1 25.6234 -21.7288 -25.6024
23 1 -26.9689 17.5214 -16.9433
24 1 -27.5073 18.2565 -16.6365
25 1 -27.0994 18.9742 -17.0851
26 1 -26.1767 19.171 -17.3789
22 1 -27.5641 16.8589 -17.4025
27 1 -26.2989 19.3388 -18.3109
28 1 -26.3485 19.3874 -19.254
29 1 -26.088 20.3477 -19.1332
38 1 -20.9537 20.992 -18.2455
39 1 -20.5385 20.8618 -17.3723
40 1 -20.0324 20.8365 -16.5824
41 1 -20.9994 20.5514 -16.3099
16 1 -24.9446 17.6921 -18.6234
17 1 -25.0269 17.151 -19.4531
19 1 -26.3736 16.6755 -18.8346
18 1 -25.9549 16.9306 -19.6481
21 1 -26.693 16.6187 -17.7232
20 1 -26.8932 17.324 -18.2708
30 1 -25.42 20.2603 -19.7999
42 1 -22.0015 20.4591 -16.4489
43 1 -21.8887 20.8545 -15.5477
31 1 -24.6817 20.5765 -19.1865
32 1 -23.9859 19.9144 -19.2428
33 1 -23.7089 20.7473 -18.6521
35 1 -22.8397 21.7728 -18.2116
36 1 -21.9609 21.6844 -18.5622
45 1 -21.2856 20.0356 -14.7294
37 1 -21.2088 21.3575 -19.0808
14 1 -24.778 18.9504 -17.4758
15 1 -24.8976 17.9589 -17.689
34 1 -22.8319 20.8408 -18.1443
46 1 -20.312 19.9793 -14.7305
44 1 -21.9816 20.6628 -14.5717
47 1 -20.5757 20.6371 -14.0976
13 1 -24.0269 18.5971 -17.8884
11 1 -23.993 17.7528 -16.8562
10 1 -24.4051 17.5774 -15.9874
9 1 -23.821 18.1667 -15.496
8 1 -24.5156 18.6344 -15.1171
12 1 -23.4666 17.8094 -17.7055
7 1 -24.9007 19.4444 -14.8397
48 1 -20.266 21.5487 -14.0191
49 1 -20.662 21.35 -13.1496
1 1 -21.419 21.2635 -11.9195
50 1 -21.2547 21.8587 -12.685
6 1 -24.1307 19.5542 -14.0939
4 1 -22.4616 19.8384 -13.7312
5 1 -23.3628 19.7672 -13.5109
2 1 -21.7126 20.7512 -12.6545
3 1 -21.9982 19.7987 -12.9027
ITEM: TIMESTEP
2200000
ITEM: NUMBER OF ATOMS
100
ITEM: BOX BOUNDS ff ff ff
-5.0000000000000000e+01 5.0000000000000000e+01
-5.0000000000000000e+01 5.0000000000000000e+01
-5.0000000000000000e+01 5.0000000000000000e+01
ITEM: ATOMS id type x y z
186 1 24.7975 -8.67536 -28.0004
183 1 22.7485 -8.61198 -28.8263
185 1 24.4913 -7.92634 -28.4592
188 1 26.4871 -9.39733 -28.5697
190 1 26.0957 -7.80543 -28.3918
189 1 26.8273 -8.49719 -28.5959
184 1 23.5236 -8.04875 -28.7589
182 1 22.1062 -8.98278 -28.2436
187 1 25.5167 -9.25281 -28.5485
193 1 25.4565 -5.64404 -27.8858
192 1 25.1493 -6.58305 -27.9973
191 1 26.0378 -6.87018 -28.3327
180 1 21.2642 -10.2052 -28.6004
179 1 20.387 -9.94121 -28.9194
181 1 21.9523 -9.90673 -27.97
166 1 15.8272 -9.45152 -26.9957
168 1 15.156 -8.54422 -28.2097
173 1 17.7662 -7.1146 -30.5049
172 1 16.9388 -7.76806 -30.3045
196 1 25.8081 -6.29758 -26.8115
194 1 25.4656 -4.77244 -27.3534
169 1 15.6977 -8.05084 -28.8914
171 1 16.7493 -8.36888 -29.577
170 1 15.813 -8.52485 -29.6713
175 1 18.6749 -8.72306 -30.854
176 1 19.4082 -9.4161 -30.9566
195 1 25.6605 -5.35862 -26.5988
178 1 19.9768 -9.3608 -29.5182
177 1 20.0959 -9.6846 -30.3999
165 1 16.2939 -9.26382 -26.2106
164 1 17.1565 -8.88377 -26.0082
167 1 15.573 -8.58029 -27.2813
162 1 17.9916 -9.04954 -27.2296
174 1 18.3036 -7.84891 -30.7837
199 1 23.5302 -6.43717 -26.446
197 1 24.9833 -6.69478 -26.5817
198 1 24.3048 -6.32786 -27.1434
151 1 23.1946 -8.16602 -26.0438
200 1 23.4688 -7.47371 -26.6724
155 1 21.0573 -8.68739 -24.4857
154 1 21.7814 -8.66246 -25.0688
153 1 21.7998 -7.95504 -25.6974
163 1 17.8358 -9.4451 -26.395
160 1 18.9472 -8.75528 -26.6443
161 1 18.1157 -8.25032 -26.7067
157 1 19.4556 -8.10951 -24.5305
156 1 20.2683 -8.3432 -24.1366
152 1 22.2071 -8.14339 -26.5403
159 1 19.6213 -8.84623 -26.0145
158 1 19.9291 -8.65964 -25.1338
7 1 -29.5534 14.8486 -14.3355
9 1 -29.0681 13.5283 -14.7439
8 1 -29.0293 14.4568 -15.0803
6 1 -29.3771 15.5595 -13.7205
5 1 -29.1558 15.5212 -12.7803
13 1 -29.9064 12.4288 -13.3598
14 1 -30.3656 13.1233 -12.8522
11 1 -29.725 12.6848 -15.2359
10 1 -28.9734 13.1789 -15.6146
12 1 -29.8804 12.4227 -14.3108
3 1 -27.9519 15.9715 -14.0758
2 1 -27.0143 16.1546 -14.1839
1 1 -27.0971 15.7867 -13.3254
50 1 -26.3412 16.356 -13.4982
48 1 -25.1984 15.9283 -12.3859
4 1 -28.3502 15.6733 -13.2307
47 1 -24.5628 16.5579 -11.9108
35 1 -26.0602 13.9085 -11.6242
15 1 -31.1218 13.0433 -12.2955
16 1 -31.0513 12.1548 -11.8276
36 1 -25.3829 14.5458 -11.2848
37 1 -25.3825 14.726 -10.3498
42 1 -25.6035 17.0773 -9.49482
49 1 -25.865 16.4709 -12.679
46 1 -25.0023 16.9523 -11.1058
45 1 -25.0156 17.8667 -10.9206
34 1 -25.7145 13.282 -11.0368
17 1 -31.7936 11.5661 -11.5976
18 1 -31.4546 11.1955 -10.7163
19 1 -30.5209 11.3662 -10.442
20 1 -30.8938 11.8667 -9.71257
33 1 -26.5829 13.0864 -10.6225
21 1 -31.2356 12.5968 -9.17747
39 1 -26.4473 15.329 -10.9751
38 1 -26.3693 14.6689 -10.2884
40 1 -26.8072 16.0171 -10.3123
43 1 -25.4708 17.96 -9.19597
41 1 -26.0476 16.2902 -9.75751
44 1 -25.0211 17.9179 -9.99308
28 1 -28.4061 13.4732 -8.89346
29 1 -27.7055 12.955 -8.39782
30 1 -26.8574 13.3495 -8.43654
31 1 -26.5031 12.5982 -8.93574
26 1 -29.7863 13.525 -8.44626
25 1 -30.5465 13.0422 -8.13739
32 1 -26.2516 12.5488 -9.91266
23 1 -32.115 13.5581 -8.12405
22 1 -31.8951 12.6735 -8.48975
24 1 -31.1586 13.7681 -8.21125
27 1 -29.2011 12.8681 -8.82012
ITEM: TIMESTEP
2300000
ITEM: NUMBER OF ATOMS
100
ITEM: BOX BOUNDS ff ff ff
-5.0000000000000000e+01 5.0000000000000000e+01
-5.0000000000000000e+01 5.0000000000000000e+01
-5.0000000000000000e+01 5.0000000000000000e+01
ITEM: ATOMS id type x y z
160 1 18.771 -2.10019 -32.9508
159 1 19.3631 -1.87506 -32.1551
161 1 18.5189 -1.29548 -33.4028
162 1 18.7684 -0.480093 -33.0874
163 1 19.643 -0.528821 -32.6841
164 1 20.431 -0.29794 -33.1127
167 1 20.8282 -1.85026 -32.0039
165 1 21.0782 -0.963082 -33.5108
158 1 18.8893 -1.48924 -31.407
157 1 18.9862 -0.664756 -30.8327
170 1 23.1375 -1.83301 -32.6925
169 1 22.0855 -1.92215 -32.5499
171 1 23.2332 -2.16024 -31.7788
172 1 23.4583 -2.72618 -31.0515
166 1 21.1569 -1.1549 -32.5451
168 1 21.3116 -2.49251 -32.5417
173 1 23.5489 -2.65514 -30.0771
156 1 18.0767 -0.422586 -30.7145
174 1 23.0408 -1.81265 -29.8131
176 1 24.2701 -1.71103 -28.6292
175 1 23.6131 -2.21989 -29.0918
179 1 24.6157 -1.60995 -29.803
153 1 16.6901 -0.608401 -28.6194
155 1 17.3894 0.0426607 -30.1462
154 1 16.645 -0.247814 -29.5045
152 1 16.5696 0.0959602 -27.9266
177 1 24.9772 -2.29311 -28.399
178 1 24.8617 -2.4432 -29.3201
185 1 24.4855 1.05591 -28.1855
183 1 26.0469 0.85416 -28.9828
182 1 25.621 0.0335591 -28.6676
180 1 24.7359 -0.668665 -29.6487
181 1 25.5489 -0.848135 -29.1673
200 1 17.1803 0.655275 -26.3893
151 1 17.2525 0.554203 -27.3779
199 1 17.1357 0.656353 -25.4555
198 1 17.7217 0.325888 -24.7079
191 1 21.1448 1.30851 -26.0694
188 1 23.5893 1.56573 -27.1975
187 1 23.6309 1.44257 -28.204
189 1 22.7801 1.2306 -26.7596
186 1 23.7007 0.500952 -28.3096
184 1 25.3537 1.17336 -28.4927
197 1 18.1612 -0.482668 -24.9383
193 1 20.1112 0.957037 -26.8684
190 1 21.8711 0.842695 -26.4411
195 1 18.7381 -0.220622 -26.4626
196 1 18.4942 0.15785 -25.5569
192 1 20.8404 1.57075 -26.973
194 1 19.395 0.324179 -26.805
33 1 -42.7523 10.4339 -13.6803
31 1 -42.6354 9.61276 -14.3831
30 1 -41.9862 9.05452 -14.8054
38 1 -44.1048 12.5414 -14.0834
37 1 -43.4407 11.928 -14.5014
34 1 -43.6427 10.2301 -13.3395
35 1 -43.6242 10.9768 -13.873
32 1 -41.8543 10.0873 -14.0867
29 1 -42.4753 9.35755 -15.6796
39 1 -44.8546 12.2119 -13.5824
41 1 -45.5844 12.9369 -14.6249
40 1 -45.7543 12.213 -13.9049
42 1 -45.328 13.7234 -14.2142
43 1 -44.6522 14.3644 -14.5315
45 1 -43.3746 14.2741 -14.4324
36 1 -43.8884 11.1114 -14.7943
28 1 -42.0974 10.2308 -15.508
27 1 -41.9304 10.8982 -16.0912
26 1 -41.0271 11.246 -16.0815
44 1 -44.178 13.6633 -14.0912
48 1 -42.4481 14.4071 -15.0614
46 1 -43.7319 14.9391 -15.0337
47 1 -42.8436 15.3328 -14.9805
49 1 -41.7738 13.7586 -14.6828
22 1 -39.5258 11.2437 -14.7459
25 1 -40.1383 11.5805 -15.9556
24 1 -39.2283 11.882 -15.6397
23 1 -39.1027 10.9764 -15.5227
9 1 -37.9974 13.5625 -14.209
14 1 -36.5759 14.0942 -13.5224
13 1 -36.3566 14.7927 -12.8748
15 1 -36.604 13.6505 -14.364
7 1 -39.1749 13.8445 -13.6291
10 1 -38.1994 14.182 -15.0097
8 1 -38.2935 13.9134 -13.2748
50 1 -40.8557 13.5202 -14.8625
1 1 -40.2378 14.011 -15.453
21 1 -38.9889 10.8307 -14.0135
20 1 -38.4372 11.3714 -13.4348
19 1 -37.775 11.9936 -13.0125
18 1 -37.1512 11.2812 -13.3233
17 1 -36.8623 12.0954 -13.7526
16 1 -36.9708 12.7684 -14.4171
5 1 -40.1833 14.358 -14.4531
6 1 -39.358 13.8399 -14.5822
11 1 -37.6989 14.6871 -14.3841
12 1 -37.0347 14.9416 -13.5452
2 1 -39.6584 14.6785 -15.1936
3 1 -40.4355 15.3634 -15.0697
4 1 -41.0915 14.7459 -14.6654
ITEM: TIMESTEP
2400000
ITEM: NUMBER OF ATOMS
100
ITEM: BOX BOUNDS ff ff ff
-5.0000000000000000e+01 5.0000000000000000e+01
-5.0000000000000000e+01 5.0000000000000000e+01
-5.0000000000000000e+01 5.0000000000000000e+01
ITEM: ATOMS id type x y z
155 1 14.2297 -6.9158 -21.8892
154 1 14.7045 -6.43198 -22.5121
153 1 14.5022 -6.5189 -23.4983
152 1 14.472 -5.50342 -23.5733
158 1 13.4591 -8.26454 -22.5424
157 1 14.3654 -8.31902 -22.7476
156 1 14.615 -7.76932 -21.9994
199 1 14.1165 -3.80851 -23.5237
198 1 13.5279 -3.07742 -23.791
151 1 14.2322 -4.7674 -24.2419
200 1 13.4257 -4.32345 -23.9483
192 1 12.2495 -0.967357 -21.7943
161 1 12.8961 -7.19305 -20.8785
159 1 12.5922 -8.05829 -22.1813
160 1 12.7011 -7.19649 -21.8117
162 1 13.1726 -6.23668 -20.7795
163 1 13.5406 -5.94575 -19.9097
164 1 14.3623 -5.66701 -20.2599
165 1 13.7646 -4.95626 -20.4624
166 1 13.9885 -4.77682 -21.3592
167 1 14.8947 -4.69191 -21.3593
196 1 13.6273 -1.32656 -23.195
197 1 13.5868 -2.21938 -23.4053
193 1 13.16 -1.0674 -21.8828
194 1 13.6425 -1.81447 -21.699
195 1 14.2376 -1.70704 -22.547
190 1 12.1227 0.382539 -20.4381
191 1 11.9231 -0.420334 -20.956
189 1 12.9536 -0.0133669 -20.1243
47 1 -42.7654 15.8548 -19.8736
48 1 -43.4161 15.461 -19.2796
168 1 15.5048 -4.43042 -22.0424
169 1 15.2976 -4.4084 -23.0001
171 1 14.9687 -2.82185 -22.7162
170 1 15.7202 -3.4772 -22.9588
184 1 12.5978 -0.496755 -18.0941
183 1 13.4823 -0.799751 -18.1667
186 1 12.57 -0.942801 -19.7159
187 1 13.4144 -1.36565 -19.4296
185 1 12.5277 -1.2796 -18.7547
188 1 13.6239 -0.738996 -20.2991
43 1 -40.5412 15.3114 -21.0128
44 1 -40.66 16.1116 -20.6125
38 1 -39.0559 14.2093 -19.099
46 1 -41.8959 16.0522 -20.3824
45 1 -41.1411 15.6125 -19.916
42 1 -39.8215 14.6439 -20.6903
37 1 -38.9529 13.7157 -19.9032
36 1 -38.1891 13.5013 -19.3675
50 1 -44.6641 16.5396 -19.6791
49 1 -44.3978 15.6982 -19.3205
182 1 14.275 -0.311548 -18.4081
180 1 15.1926 -0.852433 -19.4395
172 1 15.7797 -2.47519 -22.2189
173 1 15.318 -2.269 -21.4402
174 1 15.3489 -3.05001 -20.7986
181 1 15.0176 -0.937928 -18.4761
41 1 -39.9204 15.3902 -20.0942
40 1 -39.0996 14.931 -19.8157
39 1 -39.0979 15.1612 -18.86
1 1 -45.2837 17.2188 -19.4357
35 1 -38.4889 13.658 -18.4917
3 1 -47.0175 17.2358 -19.4598
2 1 -46.1429 17.6311 -19.5822
34 1 -38.1976 12.8856 -17.9361
33 1 -38.7918 13.0771 -17.1811
4 1 -46.8787 17.1889 -18.411
5 1 -47.3426 17.9178 -18.8216
177 1 14.6481 -2.26713 -19.3006
178 1 15.572 -2.38187 -19.1198
179 1 15.8721 -1.48532 -19.1402
175 1 15.2308 -3.12315 -19.8415
176 1 14.2871 -3.06836 -19.934
30 1 -38.8294 13.9488 -15.0826
29 1 -38.6061 14.4361 -14.2284
32 1 -38.6428 13.234 -16.2114
31 1 -38.4242 14.0985 -15.9057
10 1 -44.7762 17.386 -17.0587
7 1 -46.4005 18.821 -17.8416
8 1 -45.4739 19.0159 -17.7546
6 1 -47.3542 18.6216 -18.0516
28 1 -37.9371 15.1156 -14.0786
27 1 -38.1014 15.7949 -14.7741
11 1 -45.0368 17.7572 -16.2354
12 1 -45.737 18.4439 -15.9649
13 1 -45.1433 18.3706 -15.233
14 1 -44.3727 17.8059 -14.9409
25 1 -39.1169 15.4029 -14.8598
9 1 -45.3171 18.1044 -17.3736
21 1 -41.0616 15.393 -14.5781
22 1 -40.6431 15.932 -13.8621
15 1 -44.0955 16.8552 -14.7762
16 1 -44.2512 16.272 -14.0778
26 1 -38.3386 14.9566 -15.1229
24 1 -38.953 16.1099 -14.2181
17 1 -43.5747 15.7675 -14.5162
18 1 -42.8696 15.6409 -15.1036
20 1 -41.9621 15.1225 -14.5745
19 1 -41.9336 15.6146 -15.3672
23 1 -39.7459 16.4245 -13.8637
ITEM: TIMESTEP
2500000
ITEM: NUMBER OF ATOMS
100
ITEM: BOX BOUNDS ff ff ff
-5.0000000000000000e+01 5.0000000000000000e+01
-5.0000000000000000e+01 5.0000000000000000e+01
-5.0000000000000000e+01 5.0000000000000000e+01
ITEM: ATOMS id type x y z
192 1 16.3451 -7.81002 -39.2106
194 1 16.2472 -8.92976 -40.2547
191 1 16.6446 -8.05352 -38.3391
188 1 17.4614 -8.22832 -36.5359
193 1 16.8082 -8.56623 -39.532
196 1 16.7997 -10.1681 -39.0922
189 1 18.0915 -8.3235 -37.2888
190 1 17.3481 -7.92169 -37.7897
195 1 16.3663 -9.77745 -39.9495
187 1 17.481 -9.02551 -35.8847
200 1 15.7321 -11.3523 -36.884
199 1 16.2066 -10.6644 -37.3151
197 1 16.6671 -9.80568 -38.2714
198 1 16.996 -10.6427 -37.8914
185 1 16.5819 -8.81404 -34.4726
186 1 16.7653 -9.24439 -35.3296
164 1 10.3976 -11.6403 -33.6707
163 1 11.0608 -12.1725 -33.1963
165 1 9.43132 -11.6573 -33.7165
153 1 16.5125 -12.5425 -35.1546
152 1 16.2448 -11.8636 -35.853
151 1 16.1463 -12.1968 -36.7486
182 1 15.7687 -9.03989 -32.4189
183 1 16.0675 -9.60403 -33.1413
184 1 16.4865 -9.63662 -33.9813
167 1 10.2988 -12.9654 -33.5432
166 1 9.52168 -12.5709 -33.2428
162 1 11.9104 -12.5846 -33.0082
161 1 12.4994 -11.8798 -33.3744
157 1 14.369 -12.7812 -35.5955
158 1 14.1019 -12.1626 -34.9
160 1 12.9692 -11.9812 -34.2353
159 1 13.6413 -12.7553 -34.3519
155 1 15.2733 -12.862 -34.9464
154 1 16.2014 -13.1989 -34.5092
181 1 15.2984 -9.78673 -31.8749
168 1 9.87332 -13.8116 -33.3688
169 1 10.5215 -14.4204 -33.0987
170 1 9.90298 -14.2969 -32.3824
171 1 9.81877 -13.658 -31.6534
176 1 12.6612 -12.1132 -31.9064
175 1 11.8657 -11.5685 -32.02
156 1 15.1742 -13.4043 -35.7513
177 1 12.8414 -11.2049 -31.6346
178 1 13.6943 -11.6536 -31.6963
179 1 14.4707 -11.1392 -31.4388
180 1 15.3182 -10.641 -31.4383
172 1 10.3938 -13.3132 -32.3515
173 1 10.6961 -12.6549 -31.7108
174 1 11.3331 -12.0674 -31.3172
15 1 -37.8162 29.0161 -20.9892
14 1 -38.7642 28.6495 -21.0564
13 1 -38.7811 27.743 -21.4271
16 1 -37.6181 28.7813 -20.0312
17 1 -37.7075 27.86 -19.624
18 1 -38.4967 27.2736 -19.7506
12 1 -39.2988 27.6576 -20.6259
9 1 -41.0844 28.3879 -22.2489
11 1 -39.8004 28.3608 -21.0266
10 1 -40.2664 28.0692 -21.8204
8 1 -41.7447 27.9776 -21.6913
7 1 -42.0858 28.3206 -20.8984
33 1 -43.5871 26.853 -17.8452
23 1 -42.4209 26.907 -20.3061
19 1 -39.4397 27.0217 -19.6702
20 1 -40.1511 26.4122 -19.4611
21 1 -40.5883 26.7513 -20.2051
22 1 -41.5481 26.5621 -20.1841
42 1 -47.6635 28.8472 -19.7064
43 1 -47.1831 29.6677 -19.7293
44 1 -46.7592 29.1637 -20.4054
46 1 -46.1129 30.2631 -20.9388
45 1 -45.9942 29.2972 -21.0123
47 1 -45.4356 30.4549 -20.2093
48 1 -44.9759 30.9006 -21.0033
6 1 -41.9423 29.1395 -20.3932
5 1 -41.3973 29.8781 -20.3345
4 1 -42.0252 30.1135 -19.6687
31 1 -42.94 25.2398 -17.4065
32 1 -42.9678 26.2219 -17.4917
30 1 -42.3282 25.0326 -18.0715
34 1 -44.522 26.7366 -17.4497
35 1 -44.8756 25.9558 -17.043
26 1 -42.5039 25.9741 -18.7451
24 1 -42.0838 27.314 -19.5246
25 1 -42.6245 26.8845 -18.7798
38 1 -46.1028 26.9612 -18.4372
36 1 -44.8543 25.8722 -17.9705
37 1 -45.5403 26.5537 -17.7197
40 1 -47.12 28.5851 -18.3883
41 1 -47.4129 28.038 -19.2009
49 1 -44.499 31.7011 -21.288
50 1 -44.011 32.1824 -20.5705
1 1 -43.1661 31.726 -20.3529
3 1 -41.608 30.9843 -19.5619
2 1 -42.3027 31.449 -20.0466
28 1 -43.8363 25.0491 -19.029
29 1 -43.0933 24.5835 -18.4857
27 1 -43.4471 25.9062 -18.8461
39 1 -46.7657 27.7139 -18.348
ITEM: TIMESTEP
2600000
ITEM: NUMBER OF ATOMS
100
ITEM: BOX BOUNDS ff ff ff
-5.0000000000000000e+01 5.0000000000000000e+01
-5.0000000000000000e+01 5.0000000000000000e+01
-5.0000000000000000e+01 5.0000000000000000e+01
ITEM: ATOMS id type x y z
179 1 15.7248 -15.9634 -37.2858
178 1 16.0255 -15.6999 -38.1326
183 1 15.5197 -13.4549 -36.419
182 1 14.6457 -13.7396 -36.6296
181 1 15.2228 -14.2795 -37.1568
180 1 15.9624 -14.9994 -37.2042
176 1 17.7221 -15.5487 -38.3473
177 1 16.9468 -15.8916 -37.8875
168 1 19.3453 -15.7679 -34.5292
184 1 14.9482 -12.6171 -36.3901
170 1 18.6896 -16.2846 -35.6221
169 1 19.4993 -15.834 -35.5379
185 1 14.0183 -12.7616 -36.2091
186 1 13.8868 -12.3086 -35.3957
187 1 14.7034 -11.8408 -35.0234
175 1 18.3717 -15.7456 -37.6499
174 1 17.8479 -15.1943 -37.036
173 1 17.3002 -15.1707 -36.1685
172 1 17.165 -15.2379 -35.2062
171 1 17.7917 -15.949 -35.4301
188 1 14.5648 -11.4773 -34.1063
189 1 14.5277 -10.4979 -34.1931
167 1 19.1487 -16.7529 -34.4492
166 1 19.3834 -16.373 -33.5404
165 1 19.0411 -17.1408 -33.0041
193 1 15.1968 -8.6639 -34.9407
192 1 15.3075 -9.55602 -35.0311
190 1 13.8632 -10.0823 -34.655
191 1 14.6798 -10.2281 -35.2145
162 1 17.7248 -17.4554 -32.1745
163 1 18.154 -18.224 -32.5807
164 1 18.9785 -18.0701 -33.0439
158 1 17.0597 -15.6555 -31.7464
156 1 18.2559 -15.3879 -30.7409
157 1 17.9795 -15.8512 -31.4787
196 1 16.9507 -10.0132 -35.2391
195 1 16.3622 -9.3028 -35.4831
194 1 16.0804 -8.82093 -34.7056
161 1 17.1261 -17.4858 -33.0147
199 1 17.5241 -12.058 -35.2882
200 1 17.6794 -12.6711 -34.6277
160 1 16.9103 -16.7246 -32.4565
159 1 16.8636 -16.5614 -31.5014
197 1 17.8122 -10.3241 -35.5147
198 1 17.381 -11.1516 -35.6738
153 1 18.2675 -13.9461 -32.9079
154 1 18.7173 -14.515 -32.2708
155 1 18.6683 -15.1499 -31.6004
151 1 17.4605 -13.2334 -33.8725
152 1 17.3535 -13.6663 -33.0653
12 1 -46.8925 37.6989 -20.6003
43 1 -44.7445 34.4524 -18.5982
42 1 -44.2307 35.1233 -19.0378
14 1 -47.2074 38.3843 -19.1585
13 1 -46.6056 38.0141 -19.7849
11 1 -46.1977 37.144 -20.2129
10 1 -45.8642 36.255 -19.8398
9 1 -45.032 35.765 -19.471
8 1 -44.7622 36.4283 -18.8339
45 1 -45.9466 33.3396 -17.9294
46 1 -46.88 33.1888 -17.9122
47 1 -47.4811 33.1836 -17.1251
39 1 -42.4286 35.4001 -17.2762
44 1 -45.4783 34.2066 -17.9913
41 1 -43.7111 34.9497 -18.2434
40 1 -42.847 34.7194 -17.8606
16 1 -47.6207 38.4961 -17.7744
15 1 -47.8564 38.7833 -18.6374
4 1 -45.3798 35.2199 -16.3394
17 1 -48.1029 38.1272 -17.0107
6 1 -44.5343 36.1841 -17.1158
7 1 -44.4758 36.6648 -17.9522
5 1 -44.8466 35.2643 -17.1617
48 1 -48.1516 33.7091 -16.6114
50 1 -47.1573 35.1628 -16.2576
49 1 -47.4123 34.3323 -16.7514
38 1 -41.847 34.5927 -17.4543
37 1 -41.9541 34.5463 -18.3996
36 1 -42.492 34.1636 -19.0469
33 1 -42.6925 32.7168 -17.8183
34 1 -42.7876 33.3931 -18.4869
35 1 -43.246 33.5992 -19.2907
1 1 -47.1622 34.4771 -15.6118
2 1 -46.2238 34.3981 -15.738
3 1 -45.2168 34.331 -15.8629
19 1 -47.8277 36.5677 -16.9549
18 1 -47.4519 37.4254 -17.2626
21 1 -47.1181 36.2763 -15.6377
30 1 -42.6134 33.928 -15.615
31 1 -42.4028 33.3117 -16.3577
32 1 -43.0281 33.2374 -17.1129
22 1 -46.5212 35.67 -15.2426
23 1 -46.2977 36.2011 -14.4449
24 1 -45.4587 35.8314 -14.3534
25 1 -44.7215 35.6796 -15.0029
20 1 -47.9975 36.5828 -16.0309
29 1 -43.3351 34.1863 -15.0382
27 1 -43.0796 35.8473 -14.9813
28 1 -42.6515 34.9794 -15.0827
26 1 -43.888 36.2322 -15.0473
ITEM: TIMESTEP
2700000
ITEM: NUMBER OF ATOMS
100
ITEM: BOX BOUNDS ff ff ff
-5.0000000000000000e+01 5.0000000000000000e+01
-5.0000000000000000e+01 5.0000000000000000e+01
-5.0000000000000000e+01 5.0000000000000000e+01
ITEM: ATOMS id type x y z
166 1 23.4833 -11.8877 -18.1992
167 1 24.0476 -12.3873 -17.6256
165 1 22.6025 -11.721 -18.6069
195 1 31.5818 -4.93249 -15.8156
197 1 30.8902 -3.38235 -16.44
198 1 30.049 -3.75648 -16.5466
36 1 -38.4024 36.3971 -18.1229
37 1 -38.7431 36.9825 -18.7683
35 1 -38.8855 36.1156 -17.4587
41 1 -38.6384 39.2215 -18.0495
40 1 -38.5669 38.7731 -18.8849
38 1 -38.5587 37.1347 -19.7117
39 1 -38.4833 37.9618 -19.3858
168 1 25.0376 -12.3388 -17.4649
169 1 24.7751 -12.7607 -16.6925
170 1 24.5404 -13.6778 -16.3717
171 1 24.9724 -13.6588 -15.4429
164 1 22.7387 -10.7893 -18.2673
162 1 22.942 -9.61883 -16.996
163 1 23.2628 -10.205 -17.6762
161 1 23.2867 -9.19 -16.219
192 1 30.394 -7.40705 -15.6612
188 1 29.0472 -9.72418 -14.7628
160 1 24.186 -9.0314 -15.9915
159 1 24.5853 -8.42008 -15.3016
158 1 24.7093 -8.15967 -16.2592
157 1 25.4478 -7.48492 -16.1552
156 1 25.5776 -6.69821 -16.6866
194 1 31.5286 -5.88233 -15.5122
193 1 30.9267 -6.69042 -15.5173
155 1 26.5754 -6.68977 -16.6009
154 1 27.1463 -5.90962 -16.5303
153 1 27.6752 -5.15349 -16.8573
196 1 31.5716 -4.09055 -16.2732
200 1 28.9162 -3.76783 -16.9994
199 1 29.3344 -4.46874 -16.537
31 1 -40.868 34.8827 -15.4022
34 1 -39.5395 36.0258 -16.7078
33 1 -40.0625 35.2052 -16.3837
32 1 -39.9903 34.5969 -15.6268
42 1 -39.3533 38.6693 -17.7256
43 1 -39.2258 39.2963 -17.0299
172 1 24.5536 -13.8289 -14.5601
173 1 24.4544 -14.0215 -13.6458
174 1 25.2666 -13.8735 -13.2429
176 1 25.5921 -13.635 -12.1645
175 1 24.7095 -13.5894 -12.47
190 1 30.1315 -8.90811 -15.933
191 1 30.4805 -8.10993 -16.3168
189 1 29.3921 -8.94512 -15.2788
186 1 30.4341 -9.59864 -13.6968
187 1 29.5929 -9.3217 -14.0403
152 1 28.1454 -4.57391 -17.4918
151 1 27.9775 -4.0498 -16.6896
30 1 -40.7546 34.7923 -14.4461
24 1 -38.1533 37.4679 -13.1472
23 1 -38.8801 37.9752 -13.4863
29 1 -39.778 34.6272 -14.5054
28 1 -39.0382 35.1619 -14.1149
26 1 -39.7677 36.8415 -13.6416
21 1 -40.2255 39.2663 -13.3758
22 1 -39.7066 38.4153 -13.2823
27 1 -39.3722 36.1424 -14.2689
25 1 -38.9773 36.8977 -13.1407
44 1 -39.0542 39.9263 -16.3504
45 1 -38.919 39.0626 -15.9314
47 1 -38.5067 40.4454 -15.2074
46 1 -38.8357 39.4722 -15.0568
177 1 26.2772 -13.669 -12.7609
178 1 26.1886 -12.6946 -13.0053
179 1 26.9011 -12.8838 -13.6631
180 1 27.0817 -11.9303 -13.5331
181 1 27.5526 -11.3926 -14.1868
182 1 28.1985 -11.6938 -13.6234
185 1 30.0113 -10.43 -13.8827
184 1 29.3257 -10.9422 -14.258
19 1 -41.8558 39.9862 -13.7267
20 1 -41.1911 39.2011 -13.5783
17 1 -42.4552 40.6441 -12.6934
18 1 -42.7325 39.9131 -13.3089
48 1 -38.6337 40.45 -14.1834
49 1 -39.2649 40.8951 -13.5259
183 1 28.9055 -11.8756 -14.2164
16 1 -42.4039 41.6098 -12.7169
15 1 -42.2169 42.4868 -12.2046
50 1 -39.7779 40.5453 -12.8001
1 1 -39.6032 41.3235 -12.1911
14 1 -42.7428 42.9046 -11.5236
12 1 -41.9327 42.7742 -9.91347
13 1 -42.0001 42.9121 -10.8692
9 1 -41.0026 40.428 -9.31322
8 1 -40.4496 41.1108 -9.6672
4 1 -39.149 42.4954 -10.5441
2 1 -40.0787 41.7091 -11.4126
3 1 -39.3244 42.2749 -11.4293
11 1 -41.6338 41.8977 -10.2896
10 1 -41.5298 41.2041 -9.56984
7 1 -39.9952 41.4938 -8.88724
6 1 -40.1267 42.4425 -9.01164
5 1 -39.9704 42.5048 -10.003
ITEM: TIMESTEP
2800000
ITEM: NUMBER OF ATOMS
100
ITEM: BOX BOUNDS ff ff ff
-5.0000000000000000e+01 5.0000000000000000e+01
-5.0000000000000000e+01 5.0000000000000000e+01
-5.0000000000000000e+01 5.0000000000000000e+01
ITEM: ATOMS id type x y z
165 1 34.4962 -7.97883 -30.0807
167 1 33.3695 -8.29201 -28.6101
166 1 33.7448 -7.99613 -29.4313
164 1 33.7012 -7.36386 -30.2397
163 1 32.7674 -6.96038 -30.0474
162 1 33.3559 -6.0908 -30.2006
169 1 32.3856 -7.40278 -27.3483
170 1 31.4522 -7.66388 -27.4626
168 1 32.9376 -7.57895 -28.1106
192 1 26.7236 -5.82701 -28.6855
161 1 33.6078 -5.35707 -30.8416
159 1 33.917 -4.47149 -29.2924
160 1 33.8201 -5.15271 -29.9346
171 1 30.8935 -7.21558 -26.7974
172 1 30.109 -7.76276 -27.0339
193 1 27.4536 -6.15202 -28.1302
173 1 29.8201 -8.67702 -27.3811
191 1 26.811 -5.26043 -27.9045
194 1 27.4815 -6.11029 -27.1732
190 1 26.7523 -4.28583 -27.6181
174 1 29.2685 -9.17681 -26.6501
195 1 27.2831 -5.27648 -26.6689
196 1 28.0585 -4.71167 -26.7833
158 1 34.5429 -4.21587 -28.6375
157 1 33.9791 -3.37905 -28.9818
189 1 27.6038 -3.83372 -27.302
197 1 28.8191 -4.63902 -27.3609
198 1 29.6653 -4.63446 -27.8385
155 1 33.1439 -2.90599 -29.3915
156 1 33.5172 -2.62706 -28.5503
151 1 32.0366 -3.65823 -27.3966
178 1 27.5526 -6.09544 -25.3146
175 1 29.1361 -8.38402 -26.1121
176 1 28.434 -7.67068 -25.9345
186 1 25.2026 -3.7476 -26.4951
187 1 26.1128 -3.52874 -26.8046
188 1 26.9761 -3.75978 -26.5334
199 1 30.6181 -4.441 -27.7197
200 1 31.1804 -4.06952 -27.063
153 1 31.7357 -3.62641 -28.4993
154 1 32.5576 -3.15443 -28.7456
152 1 32.5109 -4.05678 -28.1242
181 1 27.3211 -4.82004 -25.6239
182 1 26.5191 -4.63187 -24.9885
179 1 27.6975 -5.9768 -24.4028
180 1 27.6768 -5.0964 -24.805
183 1 25.7985 -5.29082 -24.7809
184 1 25.3112 -4.40286 -25.0315
177 1 27.9134 -6.95559 -25.5238
185 1 25.7633 -4.02325 -25.8122
12 1 -40.5587 34.1264 -16.1237
10 1 -40.6596 32.4515 -16.0996
11 1 -40.2939 33.2775 -15.7953
13 1 -39.8099 34.17 -16.7371
9 1 -41.5477 32.4788 -16.4503
8 1 -41.4847 32.3 -15.5526
19 1 -39.3947 32.532 -14.5987
14 1 -38.9269 33.9414 -17.163
31 1 -37.9049 34.2977 -14.5778
5 1 -41.7291 31.7718 -13.3555
6 1 -42.1505 32.458 -13.8641
7 1 -41.5556 32.3464 -14.6606
18 1 -39.5742 33.4554 -14.4061
20 1 -38.4954 32.9467 -14.6296
15 1 -38.8346 33.1066 -16.7185
4 1 -41.7839 32.5657 -12.7317
16 1 -38.5797 32.9061 -15.8403
17 1 -39.1721 33.4011 -15.2308
27 1 -35.3803 32.6847 -14.034
28 1 -35.7773 33.4188 -13.574
40 1 -36.4655 37.0057 -12.6007
39 1 -36.1629 37.5811 -13.3875
29 1 -36.5071 33.8448 -14.0083
30 1 -37.4209 34.2068 -13.7839
38 1 -35.5415 37.7588 -14.0782
37 1 -35.8709 37.6528 -14.9504
36 1 -36.1895 36.7959 -15.2103
35 1 -36.0472 35.9604 -15.7606
33 1 -36.6061 35.622 -14.9857
32 1 -37.2139 34.9058 -14.9148
34 1 -37.0003 35.5081 -15.8674
21 1 -37.7399 32.468 -14.3149
22 1 -37.3025 32.8218 -13.5235
23 1 -37.0529 32.5951 -12.6186
24 1 -36.4968 31.7982 -12.7255
3 1 -41.2116 32.8737 -12.0454
2 1 -40.6268 33.3273 -11.3315
42 1 -37.4381 37.2313 -11.9235
25 1 -35.7679 31.7745 -13.2606
26 1 -34.9133 32.0252 -13.5478
1 1 -40.3944 33.3779 -12.3297
50 1 -39.7956 33.7173 -13.0584
49 1 -39.4429 34.4601 -13.5939
48 1 -39.5198 35.2883 -13.1228
46 1 -39.3903 35.9062 -11.666
47 1 -40.0839 35.6672 -12.3556
41 1 -36.5488 37.6007 -11.8625
43 1 -38.3315 37.5746 -11.8404
44 1 -38.5874 36.6554 -11.9399
45 1 -38.573 35.7573 -12.2735
ITEM: TIMESTEP
2900000
ITEM: NUMBER OF ATOMS
100
ITEM: BOX BOUNDS ff ff ff
-5.0000000000000000e+01 5.0000000000000000e+01
-5.0000000000000000e+01 5.0000000000000000e+01
-5.0000000000000000e+01 5.0000000000000000e+01
ITEM: ATOMS id type x y z
168 1 45.539 -3.87968 -41.699
167 1 46.3699 -4.3576 -41.2348
176 1 42.5744 -5.24134 -43.3287
175 1 43.484 -5.02581 -43.3535
174 1 43.7879 -5.01878 -42.4733
173 1 44.5332 -5.49663 -42.1021
172 1 44.6144 -6.4488 -42.1773
171 1 45.3355 -6.01727 -42.6759
169 1 45.8759 -4.67845 -42.2606
170 1 45.5696 -5.48997 -41.9033
165 1 47.3371 -2.80575 -40.7591
166 1 46.6857 -3.49394 -40.927
160 1 46.7953 0.112219 -39.0125
191 1 41.9189 1.3654 -39.579
177 1 42.1146 -4.67346 -42.7498
178 1 42.2906 -4.97281 -41.8312
180 1 41.4538 -5.20731 -40.4155
179 1 41.7992 -4.60861 -41.0455
183 1 42.4137 -3.07671 -40.0879
181 1 41.2695 -4.25679 -40.0451
182 1 41.8694 -3.71462 -40.626
185 1 43.0064 -1.4944 -39.5713
184 1 42.3345 -2.20922 -39.5826
161 1 46.7286 -0.80987 -38.6191
162 1 47.5608 -1.25041 -38.8565
164 1 47.3058 -2.36533 -39.9362
163 1 47.7532 -1.51828 -39.8355
187 1 43.7761 -0.861821 -38.4316
188 1 43.5274 0.0410752 -38.5651
186 1 43.8688 -1.15153 -39.2922
158 1 47.375 1.75172 -39.7007
159 1 46.7711 1.05896 -39.3419
189 1 42.5333 0.0357106 -38.7612
190 1 42.19 0.96154 -38.7098
192 1 41.801 1.5113 -40.4946
194 1 42.4629 2.46117 -40.6147
193 1 42.7706 1.59527 -40.2934
157 1 46.4241 2.09091 -40.0394
156 1 46.2148 1.94373 -39.0684
155 1 46.5344 1.36887 -38.3044
195 1 42.9022 3.28885 -40.4071
196 1 43.5824 3.42506 -41.0617
197 1 44.3919 3.68538 -40.6499
154 1 45.6963 1.48107 -37.7872
153 1 44.8559 1.12952 -37.4416
151 1 45.1159 2.48993 -38.0201
152 1 44.7169 1.67109 -38.232
199 1 44.0112 3.26087 -39.4368
200 1 44.6518 3.07342 -38.6756
198 1 44.765 3.70078 -39.7887
39 1 -31.4366 35.5551 -20.3782
40 1 -30.7488 36.272 -20.3852
41 1 -30.3065 37.1244 -20.5612
42 1 -29.8545 37.7474 -21.2148
43 1 -28.9679 37.7198 -21.5741
44 1 -28.404 37.7076 -20.7289
45 1 -28.9468 37.8637 -19.9579
47 1 -30.0155 38.9829 -19.4034
46 1 -29.5813 38.5591 -20.1317
48 1 -29.6332 39.777 -18.9106
49 1 -29.9301 40.2081 -19.6854
50 1 -29.1604 39.9361 -20.1091
1 1 -28.6324 40.7202 -19.9601
2 1 -28.2873 41.3805 -19.351
38 1 -31.2426 36.0181 -19.5298
37 1 -32.0976 35.8574 -19.2042
36 1 -32.3238 35.9781 -18.2017
35 1 -32.6973 36.8052 -17.7003
12 1 -31.8571 42.5906 -18.3902
13 1 -32.3358 41.7427 -18.6608
11 1 -31.1762 43.2322 -18.5105
10 1 -31.1503 43.8896 -17.7478
4 1 -28.8561 42.9694 -18.6126
3 1 -28.4079 42.2377 -18.9475
9 1 -30.301 43.6809 -18.0708
6 1 -28.2679 44.2706 -17.9404
5 1 -28.0532 43.407 -18.3945
7 1 -29.1796 43.9082 -18.0474
34 1 -32.0713 37.5388 -17.2631
32 1 -31.1503 37.8808 -18.1491
33 1 -32.0041 38.2565 -17.9506
15 1 -33.2654 42.1958 -18.0185
14 1 -33.2549 41.8188 -18.9209
8 1 -29.9011 44.5496 -18.2418
23 1 -32.6992 39.4847 -15.5214
25 1 -31.6378 40.7328 -15.9159
24 1 -32.4829 40.4078 -15.4935
17 1 -33.3637 40.6352 -18.6851
16 1 -33.4532 41.298 -18.0643
31 1 -30.5165 38.528 -17.6778
26 1 -30.7869 40.3623 -16.2797
21 1 -34.4021 39.5833 -16.3612
22 1 -33.5994 39.3458 -15.782
19 1 -34.8749 40.5149 -17.5815
18 1 -34.0727 40.2748 -18.0955
28 1 -29.8466 40.7432 -16.5584
27 1 -30.6743 41.2449 -16.6525
29 1 -29.7976 40.1335 -17.2517
30 1 -29.9828 39.2729 -17.5056
20 1 -35.0541 40.2768 -16.6508
ITEM: TIMESTEP
3000000
ITEM: NUMBER OF ATOMS
100
ITEM: BOX BOUNDS ff ff ff
-5.0000000000000000e+01 5.0000000000000000e+01
-5.0000000000000000e+01 5.0000000000000000e+01
-5.0000000000000000e+01 5.0000000000000000e+01
ITEM: ATOMS id type x y z
171 1 34.6609 -8.26217 -45.7782
172 1 34.0408 -8.25039 -46.4542
173 1 33.7715 -7.61098 -45.6836
179 1 33.6772 -3.2495 -45.8179
178 1 34.1988 -3.88675 -45.3339
177 1 34.5125 -4.81194 -45.5498
174 1 34.4186 -6.93817 -45.781
176 1 34.1377 -5.64693 -45.3303
182 1 33.2257 -2.33378 -44.1254
181 1 33.3994 -1.7433 -44.8307
180 1 33.2142 -2.53089 -45.3802
169 1 35.1157 -9.23539 -44.5789
167 1 35.2005 -7.33622 -45.0333
168 1 35.3556 -8.34895 -44.9077
188 1 31.8013 -5.80529 -44.7575
170 1 34.8376 -9.1793 -45.5121
186 1 31.4707 -4.38152 -45.6529
187 1 32.0315 -5.12598 -45.3837
184 1 32.4334 -3.18341 -44.5748
185 1 31.9009 -3.64104 -45.1908
175 1 34.8158 -6.26916 -45.1667
183 1 32.3159 -2.37564 -44.0688
166 1 36.0746 -6.86744 -44.9563
165 1 36.9513 -7.28543 -44.7468
164 1 37.3595 -7.53196 -43.945
190 1 32.2061 -6.44978 -43.6465
189 1 32.4638 -5.63223 -44.1331
163 1 36.606 -7.57117 -43.4251
162 1 36.89 -7.86378 -42.4906
191 1 32.7303 -6.4859 -42.8058
192 1 32.5454 -6.68097 -41.8864
160 1 36.2021 -8.14153 -41.3481
161 1 35.9684 -7.94706 -42.2364
193 1 32.8109 -6.32271 -41.0669
155 1 34.8302 -5.24037 -41.936
154 1 34.0184 -5.72148 -42.1467
157 1 34.9589 -6.86071 -42.3102
159 1 35.7405 -7.38955 -41.0071
158 1 35.7469 -6.78808 -41.731
194 1 33.1822 -5.78887 -40.3683
195 1 32.6757 -5.1307 -39.7872
153 1 33.0889 -5.53458 -42.281
156 1 34.802 -6.18087 -41.6371
151 1 33.3415 -3.65799 -42.4265
200 1 33.5928 -2.76893 -42.1096
152 1 33.4653 -4.66488 -42.4798
196 1 33.1709 -4.28574 -39.6979
197 1 32.5699 -3.52603 -39.9059
198 1 33.1863 -2.91491 -40.2381
199 1 33.4528 -2.92628 -41.1291
15 1 -28.0808 38.4191 -10.0283
13 1 -27.6004 37.2889 -8.68792
14 1 -27.5357 38.1473 -9.21053
12 1 -27.4195 37.1589 -7.69271
16 1 -28.9282 37.9321 -9.60187
18 1 -27.9981 38.4587 -8.24761
11 1 -26.7103 37.7978 -7.69832
10 1 -26.0107 37.1253 -7.70151
19 1 -27.3682 39.0691 -7.90166
17 1 -28.4523 38.621 -9.05325
9 1 -25.4945 37.757 -7.12471
8 1 -25.0858 36.9374 -6.81954
6 1 -24.3691 36.7023 -5.81371
7 1 -25.1056 36.2322 -6.2088
4 1 -23.5784 37.0545 -4.33124
5 1 -24.2698 37.1841 -4.97096
20 1 -27.138 39.526 -7.07701
21 1 -26.8991 40.0131 -6.21081
22 1 -26.138 40.5109 -5.94759
23 1 -25.4737 41.1762 -5.72213
25 1 -26.9522 41.8589 -4.65083
24 1 -26.2393 41.3624 -5.0977
27 1 -27.768 42.715 -3.27034
26 1 -27.249 42.0806 -3.80127
28 1 -27.0223 43.186 -3.70584
32 1 -26.3039 44.1641 -5.35124
3 1 -23.9827 37.9247 -4.1994
2 1 -24.808 38.3184 -4.03199
50 1 -24.8224 39.5451 -4.49841
1 1 -24.679 38.7278 -4.85913
49 1 -25.1812 39.6829 -3.56074
47 1 -24.4315 40.2925 -2.30897
29 1 -27.7829 43.2081 -4.28125
30 1 -27.614 43.4727 -5.20355
31 1 -27.1238 44.0764 -5.81505
33 1 -25.5294 43.9014 -4.89416
35 1 -24.1431 43.3571 -5.25863
34 1 -25.0803 43.0471 -5.2026
37 1 -24.0716 44.9255 -5.09259
36 1 -23.7785 44.1252 -5.67375
45 1 -25.4565 41.809 -2.11813
48 1 -24.8993 40.4863 -3.15135
46 1 -25.0288 40.9177 -1.99069
43 1 -24.1624 43.1466 -2.15429
44 1 -24.7357 42.4762 -2.23463
42 1 -24.7211 43.9266 -2.40172
41 1 -24.1113 44.0382 -3.13053
38 1 -23.3512 45.5407 -4.71878
39 1 -23.7701 44.9542 -3.99957
40 1 -23.2413 44.3724 -3.50331
ITEM: TIMESTEP
3100000
ITEM: NUMBER OF ATOMS
100
ITEM: BOX BOUNDS ff ff ff
-5.0000000000000000e+01 5.0000000000000000e+01
-5.0000000000000000e+01 5.0000000000000000e+01
-5.0000000000000000e+01 5.0000000000000000e+01
ITEM: ATOMS id type x y z
152 1 37.3945 -23.2729 -41.293
153 1 37.1369 -22.4509 -41.738
198 1 36.7093 -24.7806 -41.723
199 1 36.0147 -24.4203 -41.128
200 1 35.7593 -23.7666 -41.7831
151 1 36.4387 -23.2396 -41.3183
158 1 35.5528 -21.3153 -41.998
155 1 37.36 -20.9028 -40.539
156 1 36.6211 -20.4549 -40.9363
154 1 37.3124 -21.8646 -40.9177
159 1 34.5268 -21.4723 -42.1915
190 1 40.1337 -25.1922 -40.6385
191 1 39.7096 -26.0598 -40.5849
193 1 39.3852 -26.8043 -41.954
192 1 40.1161 -26.6379 -41.3321
196 1 37.8473 -25.1581 -41.632
197 1 37.045 -25.6863 -41.7559
161 1 34.1596 -21.4552 -40.6566
160 1 33.8139 -21.6036 -41.583
157 1 36.1392 -21.2778 -41.2546
188 1 39.6021 -25.7636 -39.3953
186 1 40.5785 -27.2792 -39.1101
189 1 39.4279 -25.0343 -40.0203
185 1 40.897 -27.5659 -38.2016
194 1 38.6654 -26.185 -42.269
195 1 38.6908 -25.6314 -41.4033
166 1 35.7785 -21.7782 -38.464
172 1 39.7759 -20.047 -37.9996
173 1 40.5381 -20.6662 -38.177
174 1 40.3822 -20.258 -39.0918
175 1 41.1658 -20.3112 -39.6837
176 1 41.7825 -21.0524 -39.857
163 1 34.3674 -21.9741 -39.1259
164 1 34.726 -21.5091 -38.3988
165 1 35.2078 -21.2102 -39.1598
162 1 34.0136 -22.234 -39.9695
187 1 39.8547 -26.6684 -39.3356
184 1 41.4168 -26.8885 -38.714
183 1 41.3131 -26.2143 -39.3693
182 1 41.3465 -25.4701 -40.0166
181 1 40.6698 -24.8092 -39.771
179 1 41.7311 -23.1879 -39.8899
180 1 41.0325 -23.8371 -39.8918
178 1 41.9522 -22.6924 -39.1046
177 1 41.678 -21.9231 -39.6678
169 1 37.6183 -20.4318 -38.0838
168 1 36.6982 -20.7385 -37.8851
170 1 38.0791 -20.0298 -38.8752
171 1 38.961 -19.978 -38.5749
167 1 35.7817 -20.8266 -38.0349
43 1 -17.4056 39.8062 -21.7572
46 1 -18.9879 40.1936 -20.419
45 1 -18.4009 39.4743 -20.6813
42 1 -18.4032 40.1437 -21.706
48 1 -20.3231 39.5851 -21.6669
49 1 -21.0742 39.9655 -21.2563
44 1 -17.4591 39.5234 -20.8393
41 1 -17.8882 40.7136 -21.1013
40 1 -16.9171 40.6365 -20.9033
38 1 -17.3703 41.5661 -20.2116
39 1 -17.5411 40.6337 -20.1466
37 1 -18.2204 41.7624 -20.7477
31 1 -15.0216 41.9346 -18.6897
30 1 -14.0782 41.8806 -18.788
1 1 -20.034 38.8234 -20.5499
47 1 -19.5858 39.8451 -21.1285
50 1 -20.7787 39.4699 -20.5043
11 1 -15.3149 40.7897 -16.9923
36 1 -17.617 42.4727 -20.8998
35 1 -16.7328 42.4607 -20.5486
34 1 -16.5905 42.8087 -19.6874
33 1 -16.2844 42.6772 -18.7686
32 1 -15.306 42.8405 -18.796
28 1 -14.0655 43.7466 -19.2555
29 1 -14.1871 42.7878 -18.9443
2 1 -19.8507 39.1208 -19.6666
8 1 -15.7328 40.097 -18.8478
3 1 -19.1392 38.8746 -19.0405
9 1 -15.804 41.0456 -18.5508
10 1 -15.8101 41.3207 -17.6103
12 1 -15.0084 40.8555 -16.1034
13 1 -14.8374 41.7825 -15.766
14 1 -14.2539 42.5026 -15.9612
21 1 -12.9085 44.8725 -17.156
22 1 -13.267 45.7064 -17.3735
23 1 -14.0951 45.7344 -17.8169
27 1 -14.6611 44.2427 -18.6497
26 1 -14.5619 45.0223 -19.2976
4 1 -18.853 38.9693 -19.9285
7 1 -16.5227 39.8169 -19.2508
5 1 -18.0128 39.1638 -19.487
6 1 -17.3264 39.3985 -18.8227
15 1 -13.7733 42.8031 -15.1502
16 1 -13.6745 43.7187 -15.0609
19 1 -12.6031 45.2644 -15.8843
20 1 -12.146 45.1022 -16.7039
25 1 -14.9498 45.8984 -19.0234
24 1 -14.2693 46.3978 -18.5284
17 1 -13.3398 44.5228 -15.3402
18 1 -13.0592 45.4185 -15.066
ITEM: TIMESTEP
3200000
ITEM: NUMBER OF ATOMS
100
ITEM: BOX BOUNDS ff ff ff
-5.0000000000000000e+01 5.0000000000000000e+01
-5.0000000000000000e+01 5.0000000000000000e+01
-5.0000000000000000e+01 5.0000000000000000e+01
ITEM: ATOMS id type x y z
200 1 35.1047 -34.296 -44.1401
151 1 34.8318 -35.2459 -44.0192
152 1 35.401 -35.7722 -43.3903
162 1 38.4929 -33.404 -43.854
163 1 38.7193 -33.6635 -42.9854
194 1 36.0279 -31.3934 -43.6122
195 1 36.185 -31.7463 -44.4972
199 1 34.9531 -33.5989 -43.5664
155 1 37.095 -35.0456 -42.5544
159 1 37.2056 -34.8613 -44.6635
160 1 37.5607 -34.1147 -45.1368
161 1 37.6928 -33.5545 -44.3547
198 1 34.9828 -33.0999 -44.4039
153 1 36.1183 -35.6085 -42.7008
154 1 36.7713 -35.3996 -43.4124
197 1 35.9231 -33.0928 -44.1048
196 1 35.4398 -32.2538 -44.1266
192 1 35.0513 -31.555 -42.3204
165 1 38.8198 -31.8731 -43.5316
164 1 38.8025 -32.7067 -42.9435
193 1 35.1146 -31.4237 -43.2773
191 1 34.4591 -30.8441 -42.0727
190 1 33.6277 -30.5299 -41.6751
189 1 32.6578 -30.6347 -41.5854
166 1 38.5639 -31.3931 -42.7609
167 1 38.8734 -30.7118 -43.3721
168 1 39.0198 -29.682 -43.3542
169 1 39.3802 -29.4055 -44.2455
170 1 38.6612 -28.8078 -43.9937
156 1 37.7307 -34.7545 -43.1307
157 1 37.9591 -35.6911 -43.3657
158 1 37.8992 -35.4067 -44.2874
187 1 32.8846 -30.7172 -40.2699
188 1 32.3749 -31.2115 -40.9241
186 1 33.126 -30.6895 -39.3237
171 1 38.2823 -27.922 -44.066
173 1 38.4081 -26.346 -43.0413
172 1 38.1889 -26.9927 -43.687
174 1 38.0934 -26.9899 -42.3343
185 1 33.8978 -30.251 -39.7509
184 1 34.393 -29.8885 -39.0386
183 1 34.3204 -29.0289 -38.6726
182 1 34.6007 -28.1468 -38.9454
180 1 35.5782 -28.2292 -40.1836
181 1 34.682 -28.4125 -39.8218
178 1 36.2365 -27.0204 -41.3546
175 1 37.4088 -27.4923 -41.8489
176 1 37.4086 -26.8447 -41.0919
177 1 36.705 -26.8927 -40.4945
179 1 36.2344 -27.737 -40.6528
49 1 -17.0313 41.6819 -34.404
50 1 -17.4302 42.4985 -34.1616
1 1 -17.2254 43.2633 -33.5932
6 1 -18.8852 44.2403 -32.9254
7 1 -18.9058 45.0375 -33.5049
5 1 -18.4507 44.4529 -32.0959
2 1 -16.9197 43.5857 -32.7685
13 1 -22.1556 45.7646 -33.3005
8 1 -19.7338 44.9934 -33.9336
47 1 -16.1659 40.2347 -34.2654
46 1 -16.0694 40.2081 -33.2537
45 1 -16.951 40.045 -32.8672
48 1 -16.8035 40.8563 -33.9002
16 1 -22.374 47.1493 -32.9042
17 1 -22.1971 46.722 -32.1025
12 1 -21.2028 45.9446 -33.309
10 1 -20.4256 46.3104 -34.7903
9 1 -19.9893 45.4375 -34.8488
4 1 -17.5252 44.4795 -32.0507
3 1 -16.6099 44.189 -31.9368
15 1 -22.3131 47.0012 -33.8626
14 1 -22.8621 46.1705 -33.8121
11 1 -21.0826 46.4353 -34.062
30 1 -22.8383 43.8257 -30.0458
31 1 -22.8836 42.8851 -30.1243
32 1 -22.0923 42.4 -30.5167
34 1 -21.6448 42.1137 -32.2254
33 1 -21.5826 42.0579 -31.2417
44 1 -17.7337 39.9549 -32.2311
43 1 -18.5671 40.2108 -31.9073
41 1 -18.2921 40.951 -32.884
18 1 -23.0011 46.3565 -32.4372
19 1 -23.4851 46.168 -31.6432
35 1 -22.0451 42.0695 -33.176
37 1 -20.7552 41.8544 -33.5766
38 1 -20.5035 42.0897 -32.6844
39 1 -20.194 41.1775 -32.6639
40 1 -19.2371 41.1901 -32.7495
29 1 -22.898 44.7379 -29.6855
27 1 -23.2164 46.6005 -29.4112
28 1 -23.137 45.6595 -29.5644
26 1 -23.7503 47.0294 -28.8216
42 1 -18.1529 41.0348 -31.8956
20 1 -24.0389 45.394 -31.8411
21 1 -24.3757 45.7368 -31.0381
36 1 -21.3675 42.6234 -33.6012
22 1 -23.8035 46.2353 -30.4674
24 1 -24.7023 46.0373 -29.0192
25 1 -24.3101 46.4338 -28.2529
23 1 -24.6188 46.4074 -29.9284
ITEM: TIMESTEP
3300000
ITEM: NUMBER OF ATOMS
100
ITEM: BOX BOUNDS ff ff ff
-5.0000000000000000e+01 5.0000000000000000e+01
-5.0000000000000000e+01 5.0000000000000000e+01
-5.0000000000000000e+01 5.0000000000000000e+01
ITEM: ATOMS id type x y z
151 1 35.2327 -44.2254 -40.748
200 1 35.6731 -43.5338 -41.2458
197 1 35.2798 -41.3035 -42.2129
196 1 35.0658 -40.4239 -42.4846
195 1 34.7931 -39.9034 -43.2069
194 1 34.369 -39.7268 -44.0498
191 1 35.382 -38.0684 -43.4646
193 1 34.9746 -39.0271 -44.2017
192 1 35.5547 -38.2386 -44.3699
188 1 34.3699 -39.0287 -42.7587
187 1 34.218 -39.643 -41.9902
185 1 35.3121 -39.875 -41.5212
186 1 34.5381 -40.3258 -41.292
154 1 35.4988 -45.5784 -41.3754
153 1 36.2717 -45.2986 -40.8488
152 1 35.7471 -44.8597 -40.1701
199 1 35.198 -42.9785 -41.8153
198 1 35.0203 -42.1202 -41.6292
189 1 34.3985 -38.2728 -42.2545
190 1 35.3538 -38.1727 -42.5541
183 1 35.6824 -38.1844 -40.9685
184 1 35.5402 -38.9169 -41.5402
179 1 35.629 -36.6461 -38.5568
182 1 35.4242 -37.3433 -40.4982
155 1 34.7534 -45.0346 -41.2101
156 1 34.1924 -45.7647 -40.8943
157 1 33.2501 -45.4777 -40.7295
158 1 32.9043 -45.0862 -39.905
176 1 33.3663 -36.6198 -37.8628
177 1 34.054 -36.9202 -38.4819
180 1 35.734 -37.1345 -39.4293
178 1 34.7705 -36.3862 -38.2374
181 1 35.1059 -36.6058 -40.0082
164 1 31.5035 -42.6071 -40.5381
162 1 31.9164 -43.7032 -40.8867
163 1 32.1198 -42.8499 -41.3059
161 1 32.2104 -43.8148 -39.9741
159 1 33.3167 -44.2106 -39.6393
160 1 32.8106 -44.2439 -40.557
174 1 32.9081 -37.2793 -36.8232
175 1 32.9244 -36.3598 -36.9995
172 1 34.2946 -38.4089 -37.3728
173 1 33.728 -37.713 -37.1643
165 1 31.6007 -42.4435 -39.5983
166 1 31.3078 -42.5124 -38.6616
168 1 32.3957 -41.0271 -38.4317
169 1 33.1618 -40.5 -38.0181
170 1 33.5603 -39.6386 -37.6431
171 1 33.9512 -39.2194 -36.8625
167 1 31.6626 -41.6726 -38.4153
46 1 -27.4738 45.6072 -34.3121
45 1 -28.1598 44.9792 -33.9879
47 1 -27.3687 44.8728 -34.8489
48 1 -26.6078 44.2693 -35.0192
49 1 -25.7702 44.5702 -35.459
50 1 -25.51 45.4243 -35.1883
2 1 -24.2722 45.6862 -34.0973
1 1 -25.2395 45.6563 -34.3196
5 1 -21.7591 45.513 -35.2104
6 1 -20.9795 45.0846 -34.7592
44 1 -27.8326 44.1561 -33.6417
43 1 -27.6931 43.2596 -33.8874
3 1 -23.5331 46.0096 -34.5289
33 1 -26.3658 44.6767 -30.6647
4 1 -22.6046 45.793 -34.7862
7 1 -21.6942 45.2564 -34.1653
8 1 -22.1141 44.9289 -33.3547
42 1 -28.4671 42.7079 -33.8008
41 1 -28.1523 42.131 -33.0275
40 1 -27.6272 41.4944 -32.564
37 1 -27.3052 42.965 -31.4943
36 1 -27.4191 43.9302 -31.5816
38 1 -26.9763 42.039 -31.5168
35 1 -27.5926 44.8035 -31.2295
10 1 -20.855 45.5068 -32.2998
9 1 -21.2157 45.2081 -33.1394
34 1 -27.1839 45.0951 -30.4493
32 1 -25.4712 45.0362 -30.8002
31 1 -26.1283 45.6974 -31.0279
30 1 -26.5364 46.3503 -30.4815
28 1 -25.4137 47.5069 -30.9513
29 1 -26.1481 47.184 -30.3793
39 1 -27.4511 41.1876 -31.6637
13 1 -20.0328 45.5515 -30.6123
11 1 -20.0986 45.9607 -31.9538
12 1 -19.7108 45.2422 -31.5082
15 1 -21.1937 45.7331 -30.4724
14 1 -20.4577 45.9878 -29.9365
26 1 -24.1818 47.7492 -30.6454
27 1 -24.9928 48.1368 -30.3187
16 1 -22.1112 45.5328 -30.755
25 1 -23.7081 48.452 -30.1426
24 1 -23.1897 48.1066 -29.3095
19 1 -22.8217 45.1755 -29.673
17 1 -22.0685 44.5699 -30.7712
18 1 -22.6339 44.2914 -30.0308
23 1 -22.3419 47.6894 -29.5088
20 1 -22.2731 45.8252 -29.1007
21 1 -21.861 46.686 -29.3372
22 1 -21.7249 47.4993 -28.8222
ITEM: TIMESTEP
3400000
ITEM: NUMBER OF ATOMS
100
ITEM: BOX BOUNDS ff ff ff
-5.0000000000000000e+01 5.0000000000000000e+01
-5.0000000000000000e+01 5.0000000000000000e+01
-5.0000000000000000e+01 5.0000000000000000e+01
ITEM: ATOMS id type x y z
189 1 31.5096 -46.1858 -36.9718
190 1 32.186 -45.8564 -37.5723
191 1 32.4427 -45.1965 -38.2702
23 1 -19.4224 43.42 -38.7139
15 1 -16.1718 48.4912 -38.3494
20 1 -18.2208 45.2298 -38.3626
22 1 -19.5475 44.1358 -38.0925
21 1 -18.9155 44.855 -37.9069
18 1 -17.4369 46.852 -38.0945
17 1 -17.1111 47.3129 -37.3114
16 1 -16.7975 47.7934 -38.0896
185 1 28.6459 -46.8292 -37.6118
184 1 28.1956 -46.2498 -36.9934
186 1 29.4324 -47.3516 -37.5777
187 1 30.3265 -47.0096 -37.4922
188 1 30.5867 -46.3271 -36.9247
193 1 32.2505 -43.8312 -37.9981
192 1 32.2559 -44.3382 -38.7871
25 1 -19.2828 43.1238 -37.7409
24 1 -20.1199 42.9862 -38.3349
26 1 -18.802 42.5174 -38.2898
19 1 -17.5445 45.948 -38.3272
14 1 -15.439 47.9083 -38.06
12 1 -14.4854 49.1332 -37.2154
11 1 -13.5855 49.0137 -37.5572
13 1 -14.6292 48.2977 -37.5626
10 1 -13.6348 48.3081 -36.8319
9 1 -13.1616 47.976 -36.0631
181 1 26.9663 -45.7136 -35.1242
182 1 27.4121 -46.1338 -35.911
183 1 27.7916 -46.9269 -36.4132
180 1 26.0805 -45.3752 -34.8079
172 1 29.0386 -42.5937 -35.088
168 1 29.1444 -44.1371 -36.1793
167 1 28.7357 -45.042 -36.007
166 1 29.369 -45.0636 -35.2543
195 1 31.3573 -42.7388 -37.4489
196 1 30.7001 -42.2041 -37.8064
194 1 32.2737 -42.9288 -37.6216
31 1 -16.1582 43.9541 -37.8211
30 1 -16.831 44.3265 -38.3827
27 1 -17.8097 42.4619 -38.3139
29 1 -17.7731 44.2531 -38.4402
28 1 -17.9425 43.3 -38.6879
8 1 -13.0913 47.7237 -35.1854
7 1 -13.4281 47.108 -34.5158
6 1 -13.5894 46.4422 -35.1682
179 1 25.2822 -44.9942 -34.2896
178 1 25.4565 -44.2385 -33.6109
171 1 28.4993 -42.7481 -35.8555
164 1 30.1315 -44.3431 -34.1139
174 1 27.7626 -42.9985 -34.9765
173 1 28.159 -42.1843 -34.9454
170 1 27.9939 -43.0091 -36.6334
169 1 28.899 -43.2803 -36.6013
165 1 29.2876 -44.8046 -34.3555
197 1 31.4285 -41.6038 -37.7346
198 1 31.9077 -40.86 -37.4087
151 1 30.3972 -39.0165 -37.1221
199 1 31.0628 -40.4092 -37.5206
200 1 30.8546 -39.5278 -37.7655
34 1 -17.763 43.7009 -36.2276
33 1 -16.8634 43.6028 -36.0807
32 1 -16.4596 43.6682 -36.9569
37 1 -19.04 44.2465 -34.5974
36 1 -19.3021 43.8303 -35.4219
35 1 -18.6697 43.4412 -36.0452
5 1 -14.3307 45.8696 -35.0531
4 1 -14.2732 44.9383 -34.9381
3 1 -14.5163 45.3261 -34.1318
177 1 26.3933 -44.1771 -33.408
176 1 26.5295 -44.194 -34.3199
175 1 26.962 -43.4973 -34.7326
163 1 29.5257 -43.6465 -34.2517
162 1 29.8081 -43.114 -33.5361
161 1 30.7178 -43.0789 -33.8169
152 1 30.4832 -38.8627 -36.1639
153 1 31.2999 -39.4894 -36.1336
155 1 32.1027 -40.8319 -35.6324
154 1 31.6341 -40.0464 -35.4649
39 1 -18.9296 43.0941 -33.2291
40 1 -19.1527 43.5 -32.3826
38 1 -18.9786 44.0172 -33.7072
45 1 -16.7956 46.0788 -33.3524
50 1 -13.0988 47.0596 -33.3022
1 1 -12.9013 46.2744 -33.8214
2 1 -13.6327 45.6655 -33.9218
160 1 31.587 -42.6182 -34.0525
159 1 31.7061 -42.877 -34.9947
158 1 32.448 -42.3016 -34.6109
156 1 32.9087 -40.7605 -35.0605
157 1 32.7786 -41.716 -35.3066
42 1 -18.9095 45.0222 -32.7402
41 1 -19.2348 44.4202 -31.9904
43 1 -18.586 45.8321 -33.1807
44 1 -17.7233 45.8322 -33.6234
46 1 -16.3495 46.8321 -33.7472
48 1 -14.9081 47.6141 -33.1864
47 1 -15.5221 47.2144 -33.8581
49 1 -13.9888 47.3984 -33.4649
ITEM: TIMESTEP
3500000
ITEM: NUMBER OF ATOMS
100
ITEM: BOX BOUNDS ff ff ff
-5.0000000000000000e+01 5.0000000000000000e+01
-5.0000000000000000e+01 5.0000000000000000e+01
-5.0000000000000000e+01 5.0000000000000000e+01
ITEM: ATOMS id type x y z
157 1 17.3578 -32.8379 -36.9652
173 1 12.5548 -31.6974 -36.3384
172 1 12.1493 -30.8596 -36.751
175 1 11.6141 -31.6585 -34.5819
160 1 17.111 -31.4728 -37.838
159 1 17.662 -31.1572 -36.9978
158 1 17.5378 -31.9958 -36.4581
171 1 11.9423 -29.9671 -37.089
174 1 12.0624 -31.5752 -35.5118
161 1 16.9695 -31.9624 -38.7445
194 1 13.2533 -37.337 -37.4358
192 1 13.353 -36.3298 -38.2503
193 1 13.9567 -37.129 -38.1542
198 1 15.6169 -36.8573 -36.6357
199 1 16.0026 -37.728 -36.4387
200 1 16.1131 -37.4572 -37.3594
191 1 12.5474 -35.984 -37.8274
190 1 12.0983 -35.1818 -37.484
189 1 12.9694 -34.9179 -37.7588
187 1 14.3706 -34.2016 -36.9963
151 1 16.8221 -36.9276 -37.6893
185 1 13.3332 -32.8348 -36.6883
155 1 16.6329 -34.0529 -36.6097
154 1 16.807 -34.9794 -36.6731
188 1 13.639 -34.1831 -37.576
186 1 13.6968 -33.825 -36.4363
156 1 17.4192 -33.739 -37.1838
178 1 12.4586 -32.1721 -33.7267
177 1 11.5979 -32.4834 -34.228
162 1 16.0076 -31.6691 -38.6813
170 1 12.6879 -29.5636 -36.5993
168 1 14.1176 -30.6665 -36.6566
169 1 13.312 -30.2795 -36.3417
176 1 11.0677 -32.3565 -34.9857
164 1 14.8272 -31.9537 -39.2615
163 1 15.0609 -31.448 -38.4645
167 1 14.7922 -31.0698 -37.3403
166 1 14.3351 -30.7065 -38.181
165 1 14.2199 -31.2572 -38.9621
195 1 13.3888 -36.518 -37.0789
196 1 14.2164 -37.0466 -37.0178
197 1 15.015 -36.7412 -37.3541
184 1 13.839 -31.956 -36.6513
153 1 16.6398 -35.8994 -36.9929
152 1 16.7892 -36.0295 -37.9002
182 1 14.3773 -31.8412 -35.1662
183 1 14.6254 -32.1026 -36.1088
181 1 14.533 -31.5495 -34.2401
179 1 13.1622 -32.1438 -34.3604
180 1 13.6117 -31.3427 -34.2106
24 1 -21.625 47.292 -28.8133
23 1 -22.1968 47.5413 -28.0766
25 1 -21.4941 47.6505 -29.7243
26 1 -21.3677 47.7232 -30.6499
27 1 -21.4805 46.8026 -30.8375
28 1 -21.3982 46.3903 -29.9581
20 1 -21.7895 46.137 -26.9068
19 1 -21.4579 46.2567 -26.0066
22 1 -21.9949 47.0143 -27.2988
21 1 -22.621 46.292 -27.352
18 1 -21.329 45.6943 -25.2569
29 1 -20.5113 46.6466 -29.6899
30 1 -20.055 47.0128 -28.9299
37 1 -15.089 46.2563 -27.5974
38 1 -14.3738 46.0844 -27.0125
39 1 -13.8498 46.5712 -26.3896
17 1 -22.3135 45.4303 -25.2209
16 1 -22.5985 44.47 -25.0918
31 1 -19.261 47.0119 -29.3493
32 1 -18.6403 46.3818 -29.057
35 1 -16.6004 47.3759 -28.0668
36 1 -15.8071 46.9356 -27.7739
43 1 -13.8356 46.4688 -24.2622
42 1 -14.5995 46.6448 -24.8062
44 1 -14.5794 46.2937 -23.6907
46 1 -15.2202 45.5244 -23.2091
47 1 -15.9688 45.0622 -22.7578
48 1 -16.316 46.0134 -22.5785
40 1 -13.3082 47.2987 -25.9652
41 1 -13.9996 47.2222 -25.2248
14 1 -22.1821 44.487 -23.6404
15 1 -22.8878 44.0441 -24.2616
13 1 -21.568 45.1302 -24.0882
33 1 -18.1343 46.6509 -28.3187
34 1 -17.1732 46.6985 -28.1906
9 1 -19.1456 45.1607 -23.6797
45 1 -14.4684 45.9932 -22.7472
1 1 -17.7435 47.4469 -22.2756
3 1 -18.1816 47.964 -23.9027
2 1 -17.8007 48.0799 -23.0234
50 1 -17.3107 46.7556 -22.7922
49 1 -16.4843 46.9845 -22.3355
12 1 -21.1943 44.4543 -24.7688
11 1 -20.3492 44.7775 -24.4949
10 1 -19.96 44.5693 -23.6371
7 1 -18.9698 46.3964 -22.6373
6 1 -19.9102 46.4984 -22.9436
8 1 -18.5858 45.6503 -23.0632
5 1 -19.5054 47.3342 -23.0389
4 1 -19.0301 48.0212 -23.4648
ITEM: TIMESTEP
3600000
ITEM: NUMBER OF ATOMS
100
ITEM: BOX BOUNDS ff ff ff
-5.0000000000000000e+01 5.0000000000000000e+01
-5.0000000000000000e+01 5.0000000000000000e+01
-5.0000000000000000e+01 5.0000000000000000e+01
ITEM: ATOMS id type x y z
172 1 12.7307 -31.6619 -33.2905
175 1 10.9643 -30.665 -33.6139
176 1 10.2179 -30.5485 -32.9427
174 1 10.8187 -31.6198 -33.6401
180 1 6.84871 -30.3005 -33.091
177 1 9.28441 -30.3851 -33.0662
178 1 8.36731 -30.5888 -33.4967
179 1 7.40949 -30.696 -33.7994
181 1 7.28872 -30.382 -32.2242
168 1 12.6988 -33.8616 -32.2287
170 1 12.8355 -32.8719 -32.6307
169 1 13.3142 -33.1975 -31.8749
171 1 12.5269 -32.543 -33.4786
173 1 11.787 -31.6457 -33.5652
182 1 8.08391 -31.0338 -32.1146
167 1 11.7614 -33.686 -32.1414
166 1 11.6171 -34.3606 -31.495
164 1 9.93432 -34.7547 -30.9094
165 1 10.8887 -34.7625 -30.9362
163 1 9.17271 -35.3548 -31.0229
157 1 9.93814 -34.3022 -28.1804
158 1 10.2152 -35.196 -28.1636
159 1 10.0161 -35.7825 -28.8808
160 1 10.4627 -36.0822 -29.6962
161 1 10.4476 -36.402 -30.5865
162 1 9.52512 -36.1636 -30.5894
198 1 13.995 -32.1504 -30.0779
183 1 8.52788 -31.4066 -31.3149
184 1 9.33235 -30.7603 -31.0988
185 1 9.98539 -31.0796 -30.452
186 1 10.0986 -30.427 -29.7105
156 1 10.2845 -33.4803 -27.8308
155 1 10.7317 -32.6198 -27.7788
153 1 10.975 -32.345 -29.3783
197 1 14.7968 -32.3193 -29.6005
196 1 14.6978 -31.4651 -29.2504
152 1 11.8241 -32.6511 -29.716
199 1 13.5622 -31.8639 -30.8916
195 1 13.9671 -31.309 -28.7035
194 1 13.5118 -31.4925 -27.8268
192 1 12.7837 -31.212 -28.9801
193 1 12.5935 -31.6263 -28.0459
187 1 11.011 -30.4053 -29.3109
189 1 12.3725 -29.2902 -30.0688
188 1 11.5624 -29.834 -29.8787
191 1 12.9334 -30.3172 -28.8026
190 1 12.5401 -30.2449 -29.6582
154 1 11.0532 -32.9114 -28.6379
151 1 12.7599 -32.5439 -29.9805
200 1 12.9277 -31.6138 -30.2215
32 1 -15.8397 41.9642 -18.6055
31 1 -16.1359 42.6962 -19.0815
29 1 -15.9733 43.3686 -19.9058
25 1 -16.2317 40.899 -21.6065
30 1 -15.6559 42.4328 -19.9502
34 1 -16.2792 40.1455 -19.2064
33 1 -16.1389 41.1054 -19.0839
27 1 -16.5845 41.7928 -20.6766
26 1 -15.9074 41.7241 -21.3405
22 1 -14.5044 41.0514 -20.5076
28 1 -16.4857 42.67 -20.3606
24 1 -15.9883 40.3037 -20.9377
23 1 -14.9838 40.3548 -21.0191
21 1 -14.8123 41.826 -20.036
36 1 -16.819 40.8189 -18.1906
35 1 -16.5414 39.9212 -18.3232
37 1 -16.6339 41.53 -17.5182
38 1 -17.2302 42.2509 -17.4654
19 1 -13.909 41.5944 -18.8768
18 1 -14.396 41.0044 -18.3512
20 1 -13.9319 42.1106 -19.6839
14 1 -13.3002 43.3245 -16.6041
15 1 -14.1633 42.9127 -16.507
13 1 -13.1338 43.474 -17.5462
10 1 -13.2566 45.6884 -18.6703
9 1 -13.4501 46.4096 -18.0285
8 1 -14.1472 46.9462 -17.6993
12 1 -12.6032 44.1373 -17.9403
11 1 -12.7531 44.8179 -18.6231
6 1 -14.6246 47.2944 -16.1131
7 1 -13.8484 47.2761 -16.7733
4 1 -14.8152 46.1544 -16.4838
40 1 -17.4751 42.618 -16.5319
39 1 -18.0092 41.9473 -16.9927
17 1 -14.5047 41.5087 -17.4775
16 1 -14.6006 42.4693 -17.2335
5 1 -14.9404 46.9677 -16.9006
2 1 -16.2329 46.5461 -15.6866
3 1 -15.7485 46.0084 -16.3511
41 1 -17.66 43.4601 -16.92
42 1 -18.4768 43.7284 -16.5691
44 1 -17.1919 43.4379 -15.8622
43 1 -18.1732 43.4821 -15.7286
45 1 -16.3755 43.8223 -15.5296
50 1 -15.6618 46.0398 -13.9145
1 1 -16.0495 46.2693 -14.7176
47 1 -16.1013 44.9687 -14.8894
46 1 -16.1637 44.7206 -15.7929
49 1 -15.4007 45.128 -14.099
48 1 -16.38 45.2754 -14.0194
ITEM: TIMESTEP
3700000
ITEM: NUMBER OF ATOMS
100
ITEM: BOX BOUNDS ff ff ff
-5.0000000000000000e+01 5.0000000000000000e+01
-5.0000000000000000e+01 5.0000000000000000e+01
-5.0000000000000000e+01 5.0000000000000000e+01
ITEM: ATOMS id type x y z
192 1 11.3455 -33.4445 -29.7754
190 1 10.3965 -33.1239 -29.3232
193 1 11.9147 -32.6953 -29.4724
191 1 10.8336 -32.7083 -30.1004
194 1 12.5546 -31.964 -29.4234
195 1 11.6768 -31.7112 -29.8433
189 1 10.0148 -33.6715 -28.6079
200 1 12.2027 -28.905 -29.4589
188 1 9.03974 -33.5565 -28.4803
186 1 7.8771 -32.3136 -29.096
187 1 8.62842 -32.9102 -29.096
196 1 11.0703 -31.0702 -29.9958
197 1 10.2977 -30.6882 -29.7163
198 1 10.5947 -29.8516 -29.3914
199 1 11.3191 -29.2132 -29.2181
151 1 12.6421 -29.5815 -28.892
152 1 13.5546 -29.7536 -29.1814
156 1 14.5008 -27.5262 -28.8424
154 1 14.6681 -28.5252 -28.4002
153 1 13.9876 -29.1107 -28.6827
155 1 14.5506 -28.3898 -29.3305
185 1 8.43889 -31.601 -29.0316
177 1 11.5365 -27.5533 -27.2355
178 1 10.6024 -27.7638 -26.9729
179 1 10.2244 -28.66 -26.8145
175 1 12.5166 -27.7899 -26.3441
176 1 12.4449 -27.6463 -27.2771
174 1 12.5279 -27.5705 -25.4096
158 1 15.1836 -27.2383 -27.0389
157 1 14.8873 -27.4263 -27.9251
184 1 7.78117 -31.239 -28.4009
183 1 7.78262 -30.383 -28.8692
182 1 8.14091 -29.6019 -28.4282
181 1 8.85534 -29.301 -27.7443
180 1 9.77055 -29.2745 -27.4808
173 1 12.1527 -26.6759 -25.3889
172 1 12.1275 -27.1002 -24.5078
159 1 14.6389 -26.6491 -26.4223
160 1 14.8248 -27.1121 -25.6516
161 1 15.5058 -26.5652 -25.1091
170 1 13.7166 -27.974 -24.3371
171 1 12.7113 -27.8486 -24.3568
162 1 15.7737 -26.1824 -24.3164
163 1 16.1192 -25.387 -24.0122
169 1 14.2531 -27.2049 -24.5239
168 1 15.0923 -27.685 -24.5591
167 1 16.0089 -27.4168 -24.6982
165 1 16.9704 -26.3589 -24.4787
166 1 16.7854 -27.0354 -25.1834
164 1 16.7181 -25.9954 -23.6192
43 1 -11.9524 44.8041 -10.3759
44 1 -12.9026 44.3959 -10.564
45 1 -12.8122 43.4174 -10.8834
46 1 -12.5908 43.6333 -11.7866
47 1 -11.728 43.9089 -11.5007
48 1 -11.1135 43.8303 -10.7068
24 1 -9.00013 47.5713 -9.19558
23 1 -8.80603 47.6432 -8.28032
34 1 -13.6397 44.6919 -12.4587
33 1 -12.8924 45.3087 -12.3058
30 1 -10.732 45.3018 -12.1308
32 1 -11.9256 45.4595 -12.5929
28 1 -10.4273 46.3492 -11.2941
29 1 -11.2611 46.0419 -11.7241
26 1 -9.79219 47.3246 -10.0236
27 1 -9.77984 46.9375 -10.8595
25 1 -9.92774 47.9558 -9.23198
42 1 -11.7142 45.7529 -10.1487
41 1 -12.5197 45.4978 -9.60811
8 1 -5.48818 44.6841 -7.87253
38 1 -13.7262 45.9887 -10.733
50 1 -9.53659 43.3055 -10.2752
49 1 -10.4616 43.4471 -10.1496
1 1 -8.77302 43.1666 -9.68775
2 1 -8.72793 43.9022 -9.08779
3 1 -8.46009 44.8715 -8.90109
5 1 -6.8445 44.5949 -8.99876
11 1 -4.39999 46.1735 -9.28212
9 1 -5.52934 45.2795 -8.60274
12 1 -4.12867 46.452 -10.1905
36 1 -14.8801 45.6272 -11.6979
35 1 -14.4331 45.2329 -12.522
37 1 -14.589 45.6127 -10.7908
22 1 -7.96388 47.9812 -8.03908
21 1 -7.14611 47.7972 -8.51192
19 1 -7.23635 47.3657 -10.1061
20 1 -6.84905 47.9464 -9.42135
17 1 -6.68215 45.8042 -10.5432
15 1 -4.92391 45.6786 -10.79
16 1 -5.7199 45.8762 -10.3503
13 1 -4.59754 46.7665 -11.0684
31 1 -11.2458 44.8932 -12.9024
6 1 -6.82919 44.1466 -8.15736
7 1 -6.36319 44.6019 -7.5049
40 1 -12.7961 45.6865 -10.5006
39 1 -12.898 46.5457 -10.801
4 1 -7.56548 45.1979 -8.85836
10 1 -5.20522 46.1472 -8.69599
18 1 -7.43861 46.4317 -10.5368
14 1 -5.44122 46.3603 -11.2642
ITEM: TIMESTEP
3800000
ITEM: NUMBER OF ATOMS
100
ITEM: BOX BOUNDS ff ff ff
-5.0000000000000000e+01 5.0000000000000000e+01
-5.0000000000000000e+01 5.0000000000000000e+01
-5.0000000000000000e+01 5.0000000000000000e+01
ITEM: ATOMS id type x y z
190 1 21.2505 -34.0802 -29.882
196 1 18.7666 -32.5291 -31.6359
195 1 19.3795 -33.2636 -31.338
194 1 19.7236 -33.8046 -32.09
193 1 20.3241 -33.8417 -31.3511
165 1 24.3581 -29.7599 -30.2013
197 1 18.6587 -32.0775 -30.816
161 1 24.0327 -27.9156 -30.8427
164 1 24.6895 -28.8062 -30.3676
163 1 24.2652 -28.4782 -29.5054
198 1 19.3119 -31.4645 -30.4495
162 1 23.4717 -28.1629 -30.053
189 1 20.4052 -34.4723 -30.2471
188 1 19.8246 -34.1173 -29.537
172 1 24.0429 -33.753 -30.0616
191 1 20.7841 -33.2375 -29.8431
192 1 20.7192 -33.1985 -30.8381
169 1 24.3068 -32.3452 -30.327
171 1 24.8563 -33.331 -29.8379
168 1 23.6277 -31.789 -29.7937
167 1 23.6605 -30.903 -30.2578
166 1 24.4637 -30.5524 -30.7178
200 1 19.6472 -30.4822 -29.1688
199 1 19.3742 -30.528 -30.1326
158 1 22.907 -28.1236 -32.8399
159 1 22.6498 -27.5122 -32.1181
157 1 22.9125 -29.0251 -32.5957
160 1 23.1877 -27.55 -31.3298
151 1 20.4181 -29.943 -29.3441
152 1 20.4461 -29.6156 -30.2809
155 1 22.3944 -29.6884 -31.0102
153 1 21.3917 -29.7361 -30.5044
185 1 21.3491 -35.4586 -27.9365
186 1 20.6749 -35.5218 -28.6677
187 1 20.3887 -34.8729 -29.2793
174 1 23.9924 -35.1865 -30.6826
173 1 23.9222 -34.2241 -30.8517
170 1 25.2485 -32.6342 -30.3402
154 1 22.2371 -30.2362 -30.2729
156 1 22.7673 -29.0781 -31.693
176 1 24.5411 -36.658 -30.355
177 1 24.9932 -37.4402 -29.9333
184 1 22.0174 -36.094 -27.6088
175 1 24.7471 -35.6888 -30.345
179 1 24.7695 -37.8019 -28.0279
180 1 24.9916 -37.0128 -27.5952
181 1 24.4824 -36.274 -27.1754
178 1 24.9407 -37.5774 -28.9594
183 1 22.8255 -35.8372 -27.1088
182 1 23.6799 -35.9189 -27.5642
25 1 -9.99561 44.3207 -25.983
26 1 -9.93233 44.6892 -25.0565
23 1 -9.83406 43.0666 -25.3133
24 1 -9.98141 43.3765 -26.214
22 1 -10.0061 43.5543 -24.5295
27 1 -10.8078 44.3475 -25.0064
29 1 -11.4931 45.7451 -23.9491
28 1 -11.2571 44.8178 -24.3033
20 1 -10.9435 42.3022 -23.7893
19 1 -11.6674 42.8372 -23.3479
33 1 -10.1506 46.0684 -21.4277
21 1 -10.2467 43.0003 -23.7524
31 1 -10.2098 46.08 -23.2075
32 1 -10.109 45.6856 -22.3194
30 1 -11.0974 46.5011 -23.512
16 1 -12.1296 42.0861 -21.3241
17 1 -11.8836 42.4262 -22.2194
18 1 -12.3448 43.1961 -22.7093
37 1 -9.31261 44.3089 -19.8113
34 1 -10.2045 45.6944 -20.5075
36 1 -10.1029 44.037 -20.3781
35 1 -10.4014 44.8835 -20.1011
15 1 -11.3686 41.5743 -21.5808
14 1 -11.9804 40.9298 -21.8084
48 1 -9.75822 42.5687 -17.071
38 1 -8.58698 44.9099 -19.7065
43 1 -8.67345 44.0768 -16.4578
42 1 -8.89062 44.7297 -17.127
41 1 -8.51713 45.4605 -17.6873
39 1 -7.77342 44.7354 -19.1555
40 1 -8.1254 44.8146 -18.2502
10 1 -11.8273 38.3429 -20.5746
9 1 -12.3811 38.9804 -20.2268
6 1 -11.4596 39.1239 -18.4122
12 1 -11.2465 39.3897 -21.5102
11 1 -11.2544 38.4286 -21.3427
1 1 -9.7371 40.7689 -16.7085
2 1 -9.15092 40.211 -17.1908
3 1 -9.89575 39.8832 -17.7393
13 1 -11.6057 40.0294 -22.0887
50 1 -10.1088 41.6438 -16.7291
49 1 -9.86404 42.3859 -16.1167
47 1 -8.78305 42.762 -17.1707
46 1 -7.92382 43.0967 -16.9912
45 1 -8.02968 42.7649 -16.0834
44 1 -8.44968 43.5342 -15.7827
8 1 -11.8488 39.7109 -19.9165
7 1 -11.5615 39.8642 -19.0278
5 1 -11.4162 39.0397 -17.4415
4 1 -10.3979 39.1052 -17.5267
ITEM: TIMESTEP
3900000
ITEM: NUMBER OF ATOMS
100
ITEM: BOX BOUNDS ff ff ff
-5.0000000000000000e+01 5.0000000000000000e+01
-5.0000000000000000e+01 5.0000000000000000e+01
-5.0000000000000000e+01 5.0000000000000000e+01
ITEM: ATOMS id type x y z
165 1 20.8934 -22.4188 -33.3417
166 1 21.2768 -23.1675 -33.8524
167 1 21.7296 -24.0606 -33.7906
163 1 19.3373 -21.2783 -33.3715
164 1 20.1147 -21.7747 -33.6085
168 1 21.3833 -24.767 -33.1978
169 1 20.6457 -24.9821 -32.7205
170 1 20.0896 -25.7669 -32.6874
162 1 18.9744 -22.108 -33.6008
161 1 18.3807 -21.7286 -32.8562
160 1 18.5523 -22.2244 -32.0182
172 1 19.325 -25.9834 -31.2304
171 1 19.8208 -26.2894 -31.9595
176 1 17.3432 -24.5144 -30.4363
158 1 19.4554 -23.2767 -30.8945
175 1 16.9116 -25.2987 -30.1196
174 1 17.7974 -25.7071 -30.4262
159 1 19.1195 -22.479 -31.2967
178 1 18.1218 -22.914 -30.1157
173 1 18.7324 -25.6523 -30.4971
183 1 16.9319 -19.7666 -28.3645
182 1 17.4642 -20.4708 -27.985
177 1 17.7079 -23.7804 -30.0391
179 1 18.0083 -22.2307 -29.5123
180 1 17.6804 -21.4162 -29.0875
156 1 21.2973 -22.7764 -30.9614
157 1 20.305 -22.7354 -30.7863
155 1 21.619 -23.4418 -30.2608
151 1 20.6539 -21.0323 -29.676
195 1 20.1767 -16.9303 -30.276
196 1 20.272 -17.6605 -29.6404
199 1 20.629 -19.7265 -29.269
200 1 20.2621 -20.4808 -28.9128
191 1 18.8074 -16.1375 -30.9706
193 1 20.3626 -15.6967 -30.9664
192 1 19.4479 -15.5408 -31.2622
194 1 20.0617 -16.5554 -31.2095
198 1 20.8245 -18.9834 -28.7756
181 1 18.1561 -20.6545 -28.6153
153 1 22.2933 -22.0075 -29.7264
154 1 22.2967 -22.6925 -30.3534
184 1 17.5716 -19.0923 -28.5622
185 1 17.942 -18.1547 -28.9053
186 1 16.9862 -18.1837 -28.6812
152 1 21.361 -21.7235 -29.6963
187 1 16.9437 -17.2133 -28.4161
188 1 17.3728 -16.7116 -29.2073
197 1 20.0646 -18.4327 -28.9655
189 1 17.9907 -16.3733 -29.8705
190 1 18.1234 -15.7104 -30.5148
21 1 -18.9664 47.0406 -13.4176
19 1 -19.3235 48.5834 -14.1153
20 1 -19.495 47.6502 -14.0839
25 1 -20.2178 43.9045 -13.6291
23 1 -19.1281 45.4778 -13.8216
24 1 -19.7994 44.7243 -13.9285
22 1 -19.1794 46.3775 -14.0357
18 1 -18.726 49.162 -13.6957
17 1 -18.2356 48.3443 -13.9216
26 1 -20.7344 43.7941 -12.814
27 1 -20.5496 44.4455 -12.1821
28 1 -20.742 43.6904 -11.5901
29 1 -19.8835 43.6003 -11.1626
15 1 -17.4193 47.8436 -12.4921
13 1 -16.305 46.4355 -11.9209
14 1 -16.9325 47.1944 -11.887
16 1 -17.9723 48.485 -12.9777
39 1 -15.8269 43.574 -9.92282
38 1 -16.6033 44.0656 -9.81854
36 1 -17.6903 43.3189 -9.60235
37 1 -17.4005 44.223 -9.3791
32 1 -20.084 42.7782 -9.37916
33 1 -19.1407 42.926 -9.47972
46 1 -13.7669 43.6063 -12.7274
47 1 -12.8827 43.5134 -12.4002
48 1 -12.8239 44.4641 -12.4174
31 1 -20.8164 42.4791 -9.95722
30 1 -20.2461 43.2266 -10.3541
6 1 -15.0844 45.4372 -13.8435
7 1 -15.9006 45.8056 -14.1969
12 1 -15.8156 45.9555 -12.6046
8 1 -16.6917 46.0185 -13.6279
9 1 -16.3873 46.8865 -13.8609
4 1 -15.1276 45.1096 -12.0732
10 1 -15.9664 47.5391 -13.2849
11 1 -15.5046 46.7544 -12.998
41 1 -15.4225 43.8517 -11.6228
42 1 -15.0172 42.9711 -11.7589
35 1 -18.248 43.5697 -8.84633
40 1 -15.5702 44.1299 -10.744
44 1 -14.5855 42.1502 -13.2538
43 1 -15.3092 42.583 -12.6149
45 1 -14.0016 42.6573 -12.7626
34 1 -18.9748 43.8397 -9.4013
49 1 -12.8234 45.2586 -11.8385
5 1 -14.7375 45.0068 -12.9297
1 1 -13.8843 45.3385 -10.6991
50 1 -13.1649 45.7678 -11.094
2 1 -13.9787 44.4395 -10.9189
3 1 -14.2229 45.0276 -11.6031
ITEM: TIMESTEP
4000000
ITEM: NUMBER OF ATOMS
100
ITEM: BOX BOUNDS ff ff ff
-5.0000000000000000e+01 5.0000000000000000e+01
-5.0000000000000000e+01 5.0000000000000000e+01
-5.0000000000000000e+01 5.0000000000000000e+01
ITEM: ATOMS id type x y z
152 1 23.3939 -27.1602 -46.2538
151 1 23.7939 -27.9595 -46.6337
153 1 22.5109 -27.5974 -46.2077
161 1 20.7846 -24.722 -45.5909
159 1 21.8293 -26.2215 -44.8183
157 1 21.7916 -27.815 -44.9318
154 1 22.1623 -28.1273 -46.9263
200 1 24.3192 -28.2208 -47.4285
199 1 24.3802 -28.9193 -48.053
162 1 20.6318 -25.648 -45.8724
163 1 19.8884 -26.3514 -45.7149
184 1 21.318 -22.1398 -45.9135
185 1 22.0757 -21.5773 -46.0898
183 1 20.4152 -22.4149 -46.343
187 1 23.3571 -21.9716 -45.7039
186 1 22.6604 -21.4106 -45.2946
188 1 23.6 -22.8007 -45.3581
182 1 20.321 -22.963 -45.5848
190 1 23.6937 -23.5032 -46.3687
189 1 24.1455 -23.5458 -45.5273
169 1 16.6689 -25.3638 -43.4884
168 1 17.4404 -26.0616 -43.2879
167 1 17.2944 -25.755 -44.1943
160 1 21.3678 -25.4296 -45.1139
158 1 22.2002 -27.0499 -44.5951
156 1 22.2397 -28.5999 -45.3574
155 1 22.0725 -28.8514 -46.2735
197 1 25.3909 -27.2903 -48.1645
198 1 24.8363 -28.0833 -48.2914
166 1 17.8191 -26.4736 -44.562
164 1 18.9644 -26.3096 -45.4216
165 1 18.0505 -26.0349 -45.4562
196 1 24.5044 -27.051 -47.809
195 1 25.1188 -26.3989 -47.4015
176 1 18.1652 -22.1971 -43.5203
193 1 25.0157 -24.9479 -48.1319
194 1 24.5719 -25.5859 -47.5855
192 1 24.9729 -24.2396 -47.5244
177 1 17.6216 -22.2657 -44.2565
180 1 18.9802 -24.3226 -45.5726
181 1 19.7075 -23.7138 -45.7433
191 1 24.4158 -23.9773 -46.7835
179 1 18.8132 -23.4052 -45.2457
170 1 16.4108 -25.6056 -42.6306
171 1 16.0905 -24.7532 -42.744
172 1 16.4996 -23.887 -42.566
173 1 16.9642 -23.0031 -42.5437
175 1 18.2675 -23.1789 -43.7516
174 1 17.7014 -23.4723 -43.0637
178 1 18.3704 -22.567 -44.8549
17 1 -16.0066 42.2313 -15.0719
5 1 -18.5783 35.3537 -14.0275
10 1 -17.5368 38.3656 -14.7729
12 1 -17.8413 40.0272 -14.8357
19 1 -15.9421 43.4278 -15.9903
20 1 -16.0378 42.5132 -16.3402
15 1 -16.5884 41.3303 -14.1308
16 1 -15.7055 41.8068 -14.2391
18 1 -16.3039 43.2031 -15.0576
21 1 -15.4781 41.8667 -16.7323
24 1 -14.4845 43.4418 -16.9683
25 1 -14.3996 44.0857 -16.2218
27 1 -13.0319 43.0644 -16.0376
26 1 -13.5817 43.8168 -15.8166
3 1 -19.865 35.4572 -13.3659
4 1 -19.4808 35.6711 -14.2141
50 1 -18.4993 37.4215 -12.2959
2 1 -19.6466 36.3346 -13.1529
1 1 -19.343 37.0934 -12.534
6 1 -18.396 36.0961 -13.4186
7 1 -18.7085 36.8314 -14.0096
49 1 -18.0828 37.9039 -13.0079
8 1 -18.0686 37.4955 -14.4124
41 1 -13.8696 37.8004 -17.0171
13 1 -17.1733 39.9545 -14.1962
9 1 -17.2678 37.4303 -14.9697
14 1 -17.4339 40.8701 -14.0514
11 1 -17.8511 39.151 -15.2308
42 1 -14.542 37.4794 -16.406
40 1 -12.935 37.5402 -16.6248
37 1 -11.7204 38.4771 -15.5798
39 1 -13.0679 38.2759 -16.0107
22 1 -14.7857 42.1584 -17.3626
23 1 -15.2912 43.0517 -17.2714
30 1 -12.456 40.917 -16.0392
28 1 -12.8248 42.1214 -16.244
29 1 -12.6306 41.66 -15.3809
33 1 -10.7313 40.6049 -15.923
48 1 -17.2977 37.8065 -13.6067
47 1 -16.3045 37.9528 -13.3919
44 1 -16.0647 36.9277 -15.8787
45 1 -16.0876 36.8059 -14.8996
46 1 -16.1331 37.4631 -14.2199
43 1 -15.1598 36.8423 -16.1891
38 1 -12.5965 38.7241 -15.2658
35 1 -11.2359 39.3213 -16.8422
36 1 -11.0149 38.6374 -16.2108
31 1 -11.5358 41.1168 -15.5707
32 1 -10.7963 41.708 -15.8625
34 1 -11.3022 39.8112 -15.9978
ITEM: TIMESTEP
4100000
ITEM: NUMBER OF ATOMS
100
ITEM: BOX BOUNDS ff ff ff
-5.0000000000000000e+01 5.0000000000000000e+01
-5.0000000000000000e+01 5.0000000000000000e+01
-5.0000000000000000e+01 5.0000000000000000e+01
ITEM: ATOMS id type x y z
161 1 24.9776 -27.0876 -37.7988
162 1 24.221 -26.7709 -38.4158
163 1 24.936 -26.1315 -38.6585
164 1 25.0184 -25.1905 -39.0195
160 1 25.9311 -26.8205 -37.8474
166 1 23.9157 -24.783 -40.1148
165 1 24.3993 -24.4964 -39.3624
159 1 25.7058 -25.8877 -37.9255
158 1 25.1689 -25.8576 -37.1163
156 1 25.8248 -25.3609 -36.1295
157 1 25.0065 -25.8915 -36.1625
170 1 23.8306 -23.6829 -39.0448
169 1 22.8649 -23.8313 -38.8262
167 1 23.4329 -24.0086 -40.3042
168 1 22.6944 -24.1203 -39.7393
199 1 28.2042 -27.2141 -36.6869
200 1 28.1059 -26.3925 -37.1267
151 1 27.5263 -25.7615 -37.5836
154 1 27.5374 -25.5552 -36.4579
152 1 27.8967 -24.8554 -37.481
171 1 24.003 -22.741 -39.0611
155 1 26.592 -25.3032 -36.7215
173 1 25.102 -22.1747 -37.8161
172 1 24.7769 -22.2846 -38.7497
174 1 25.4229 -21.3521 -37.5398
175 1 26.2293 -21.0535 -38.0642
197 1 29.3047 -26.9267 -35.3812
198 1 29.0306 -27.3222 -36.2
196 1 28.6616 -26.4206 -34.9066
153 1 27.8609 -24.6204 -36.4889
182 1 28.0207 -21.9352 -33.769
176 1 26.1587 -20.5917 -37.1748
177 1 26.3703 -21.1543 -36.4846
178 1 26.9192 -20.6645 -35.9605
195 1 28.4568 -26.3353 -33.9839
194 1 27.7041 -25.72 -33.6396
193 1 27.9843 -26.2208 -32.8322
185 1 27.0016 -22.5527 -32.5141
191 1 28.7929 -24.8348 -32.5072
190 1 28.3111 -24.7125 -31.6312
189 1 27.3541 -24.4905 -31.6014
192 1 28.8539 -25.8087 -32.6466
183 1 27.6198 -21.2766 -33.1168
184 1 27.4454 -21.6885 -32.253
186 1 26.0422 -22.8486 -32.5154
187 1 26.1299 -23.762 -32.7062
188 1 26.9944 -24.1633 -32.4371
180 1 27.2504 -21.2289 -35.101
181 1 27.3163 -21.7972 -34.3797
179 1 27.2644 -20.2473 -35.1497
11 1 -19.4547 41.6381 -19.299
10 1 -19.868 42.2157 -18.6603
8 1 -20.1128 43.5413 -17.7648
9 1 -19.7201 42.5511 -17.7654
7 1 -19.8585 44.5324 -17.7753
13 1 -18.3157 40.4042 -18.405
12 1 -18.7895 41.2516 -18.7745
6 1 -19.2545 44.9913 -17.276
5 1 -19.421 45.6442 -17.9919
2 1 -18.9907 46.8255 -17.0656
4 1 -18.746 46.2936 -18.3306
3 1 -18.9049 47.1829 -17.996
1 1 -18.4306 47.608 -17.0236
22 1 -16.9974 36.947 -17.0723
18 1 -17.1978 38.2967 -15.849
20 1 -17.5951 37.1064 -15.9025
19 1 -17.5131 37.6955 -15.1898
21 1 -16.7236 37.2787 -16.246
23 1 -16.3385 37.018 -17.7114
16 1 -17.4028 39.4679 -17.1545
15 1 -17.984 39.2617 -17.9283
14 1 -17.6731 39.7341 -18.6907
28 1 -15.1742 39.5379 -18.8337
26 1 -15.1349 38.6885 -17.0111
27 1 -15.0221 39.064 -17.9584
29 1 -15.8967 40.083 -18.541
33 1 -16.3011 43.5518 -17.9333
30 1 -16.0769 41.0129 -18.389
36 1 -14.4285 44.3407 -18.2248
35 1 -14.9139 43.6078 -17.8109
34 1 -15.6674 43.8877 -17.2556
41 1 -15.0237 46.2228 -15.9345
50 1 -18.3749 47.7594 -16.0982
49 1 -17.6901 47.4515 -15.4933
43 1 -15.2801 47.2784 -15.9383
48 1 -16.817 47.5814 -15.9032
45 1 -15.5762 48.7144 -16.4915
44 1 -15.7384 47.807 -16.6407
24 1 -15.9619 37.679 -18.297
25 1 -15.4013 37.9508 -17.5838
17 1 -17.2515 38.5934 -16.7763
31 1 -16.4995 41.7878 -18.0722
32 1 -16.4675 42.6583 -18.366
37 1 -14.2466 44.8885 -17.4605
38 1 -14.725 44.3412 -16.9238
39 1 -14.7023 44.3284 -15.9518
40 1 -14.6586 45.351 -15.8258
42 1 -15.9394 46.593 -15.8209
47 1 -17.271 48.4025 -15.8459
46 1 -16.4529 48.4712 -16.3234
ITEM: TIMESTEP
4200000
ITEM: NUMBER OF ATOMS
100
ITEM: BOX BOUNDS ff ff ff
-5.0000000000000000e+01 5.0000000000000000e+01
-5.0000000000000000e+01 5.0000000000000000e+01
-5.0000000000000000e+01 5.0000000000000000e+01
ITEM: ATOMS id type x y z
163 1 17.937 -14.4961 -39.7588
160 1 16.5005 -14.4923 -41.2126
161 1 17.1522 -14.2987 -40.4774
162 1 17.4038 -15.1913 -40.1276
195 1 14.4363 -18.9903 -38.8237
196 1 14.1719 -18.0818 -39.1749
199 1 13.1837 -17.2858 -40.8589
197 1 13.2621 -17.9401 -39.5724
198 1 12.6535 -17.7544 -40.2484
158 1 15.3062 -13.2718 -40.7284
159 1 15.7479 -13.8838 -41.4029
164 1 18.2996 -13.5643 -39.7244
165 1 18.9485 -13.8882 -39.165
166 1 19.1503 -14.1822 -38.2536
194 1 14.6699 -18.9402 -37.8717
200 1 14.097 -17.1362 -40.7351
193 1 15.6118 -19.2386 -38.0024
192 1 15.7699 -18.7107 -37.2366
152 1 14.3221 -15.5104 -39.9716
151 1 14.2263 -16.4882 -39.9676
154 1 14.2249 -14.432 -39.5003
153 1 13.9712 -15.2567 -39.1083
157 1 15.5721 -13.0607 -39.8174
156 1 14.7088 -13.1681 -39.5237
155 1 14.4471 -13.8149 -38.8629
167 1 19.4615 -15.0513 -38.0316
186 1 15.7157 -19.0527 -32.3453
187 1 15.966 -19.016 -33.3219
191 1 15.7931 -19.0557 -36.3496
190 1 15.7029 -19.2494 -35.3794
189 1 16.0573 -18.5026 -34.9424
168 1 19.2448 -15.0785 -37.0418
170 1 19.4519 -16.6429 -36.0698
169 1 19.4757 -15.903 -36.6534
184 1 16.4842 -17.175 -31.9075
185 1 16.2654 -18.2204 -32.0175
188 1 15.8503 -19.1398 -34.303
174 1 18.202 -17.2757 -35.2031
171 1 19.4113 -17.2899 -35.3625
173 1 18.3532 -18.2046 -34.8823
172 1 19.1448 -18.1887 -35.3987
183 1 16.6357 -17.3338 -30.9941
182 1 16.9154 -18.1997 -30.6171
181 1 17.4814 -17.7627 -31.2157
177 1 18.6329 -16.9882 -32.9211
175 1 18.5606 -16.7129 -34.5669
176 1 19.0101 -17.0433 -33.8097
180 1 18.1906 -17.1897 -31.5902
178 1 19.3906 -17.3415 -32.6122
179 1 18.6005 -17.7063 -32.2133
38 1 -20.9028 32.3276 -4.59976
37 1 -20.83 33.1261 -5.06903
35 1 -21.2121 34.1974 -4.76407
36 1 -21.6116 33.5253 -5.26374
26 1 -17.3784 34.4583 -5.97799
42 1 -20.769 30.4956 -4.25879
41 1 -20.1106 31.3249 -4.44295
40 1 -19.3716 31.7498 -4.9886
39 1 -19.9457 32.4587 -4.81185
23 1 -16.726 33.2947 -5.95449
22 1 -15.823 33.3178 -5.77503
21 1 -15.5474 34.2194 -5.57644
33 1 -20.7144 35.6056 -5.19935
34 1 -21.4525 35.0292 -5.27001
32 1 -19.8992 35.6499 -5.70725
31 1 -19.4259 36.2973 -6.2312
27 1 -17.8034 34.6043 -6.90175
28 1 -17.96 35.5414 -7.30531
25 1 -16.5701 34.7075 -6.56047
24 1 -16.3193 33.8209 -6.64116
45 1 -20.0136 32.2969 -3.53835
43 1 -21.4345 30.9551 -3.71655
14 1 -18.0015 33.0975 -2.70772
15 1 -17.0536 33.3532 -3.0671
17 1 -15.846 33.9685 -3.23053
19 1 -15.4744 33.2715 -4.71447
18 1 -15.5214 34.0746 -4.11251
44 1 -20.792 31.6435 -3.45395
29 1 -18.2145 36.4832 -7.35811
20 1 -14.8618 33.98 -4.96873
30 1 -18.437 36.2105 -6.44253
46 1 -19.9914 33.1667 -2.95035
47 1 -20.7015 33.5338 -2.43562
48 1 -21.0629 33.2678 -1.58615
50 1 -19.7118 32.3457 -1.89518
12 1 -18.0321 34.1408 -2.43227
13 1 -18.5094 33.8038 -3.18752
16 1 -16.6129 34.1653 -2.74503
1 1 -18.8615 32.7786 -1.64038
49 1 -20.4162 32.6626 -1.36849
10 1 -16.9885 33.3175 -1.0789
11 1 -17.6128 33.8613 -1.58813
8 1 -17.049 34.1492 0.221679
9 1 -17.4762 33.4637 -0.283147
4 1 -18.4886 33.8679 0.555368
5 1 -18.4068 34.6115 1.15794
7 1 -17.4227 33.8473 1.07465
6 1 -17.851 34.2045 1.83113
2 1 -18.4831 33.1692 -0.788708
3 1 -18.9826 33.229 0.0223246
ITEM: TIMESTEP
4300000
ITEM: NUMBER OF ATOMS
100
ITEM: BOX BOUNDS ff ff ff
-5.0000000000000000e+01 5.0000000000000000e+01
-5.0000000000000000e+01 5.0000000000000000e+01
-5.0000000000000000e+01 5.0000000000000000e+01
ITEM: ATOMS id type x y z
188 1 19.9026 -21.9685 -34.2049
193 1 16.9629 -20.9715 -33.1374
190 1 18.4812 -21.8328 -34.2133
189 1 19.1806 -22.0271 -33.5713
195 1 16.9163 -20.9606 -31.5196
187 1 20.4411 -22.0754 -33.3712
194 1 16.9168 -21.5153 -32.3262
192 1 17.9202 -21.086 -33.2857
191 1 18.7403 -21.0401 -33.8487
186 1 20.507 -21.6023 -32.5241
185 1 20.781 -21.3805 -31.6727
197 1 15.4736 -20.9975 -31.3364
196 1 16.1911 -20.3259 -31.3653
199 1 15.8874 -21.9654 -31.5541
198 1 15.0811 -21.5871 -32.0069
181 1 18.9798 -21.6335 -30.767
180 1 19.5712 -21.4988 -30.0044
182 1 19.4148 -22.4265 -30.9248
183 1 20.1347 -23.0581 -31.0936
184 1 20.6604 -22.3847 -31.5831
164 1 17.7792 -24.3476 -29.3445
156 1 16.8921 -22.2623 -28.5605
158 1 16.8652 -23.7507 -27.7666
157 1 16.9909 -23.1622 -28.4247
163 1 17.227 -23.5018 -29.4252
200 1 16.5046 -22.3625 -30.9681
151 1 16.9009 -22.2464 -30.1057
152 1 16.3415 -21.7677 -29.4101
153 1 16.7747 -21.1252 -29.9986
177 1 19.9359 -20.0445 -28.936
178 1 20.5415 -19.9823 -29.6838
176 1 19.993 -20.3149 -28.0325
179 1 20.0108 -20.6626 -30.1299
160 1 15.7126 -22.8593 -27.9859
165 1 18.4146 -23.5777 -29.6548
166 1 18.8458 -23.3598 -28.7879
159 1 16.125 -23.4242 -27.2472
161 1 15.7493 -23.3535 -28.8703
162 1 16.317 -23.9098 -29.4135
171 1 18.6479 -22.9031 -27.1532
154 1 16.8279 -20.7102 -29.0818
155 1 17.3503 -21.5397 -28.9676
172 1 18.4951 -21.9601 -27.1894
173 1 18.4359 -21.1134 -27.6997
175 1 19.2854 -20.3504 -27.371
174 1 19.4196 -21.1504 -27.8229
168 1 19.9573 -24.6742 -27.9487
167 1 19.3825 -24.1183 -28.4597
170 1 19.3169 -23.452 -27.5035
169 1 20.1471 -23.9842 -27.3051
10 1 -23.7579 39.8794 -7.28638
9 1 -23.9577 40.8206 -7.18861
8 1 -24.3979 41.6251 -7.34446
43 1 -17.692 40.0789 -5.45183
44 1 -18.535 40.4371 -5.75575
47 1 -17.8822 41.8023 -7.55241
1 1 -19.3989 41.9777 -7.85983
2 1 -20.1427 41.5747 -7.44294
49 1 -18.6567 41.458 -8.47824
50 1 -18.9394 41.1956 -7.601
48 1 -18.2226 42.2951 -8.46091
24 1 -24.1751 35.7841 -5.46924
19 1 -25.8105 36.1803 -7.819
20 1 -25.6197 36.2163 -6.90105
25 1 -23.2817 36.1582 -5.2524
11 1 -24.4266 39.7225 -7.95325
12 1 -24.1694 38.8123 -8.28291
7 1 -23.7055 42.4666 -7.14021
5 1 -22.3274 41.8879 -7.58665
6 1 -23.2494 41.6891 -7.40008
42 1 -17.207 40.2559 -4.60964
41 1 -16.8945 39.9405 -3.74652
3 1 -20.9951 42.0646 -7.36729
4 1 -21.7477 42.6538 -7.45265
45 1 -17.8551 40.791 -6.41533
46 1 -17.6001 41.6826 -6.64353
22 1 -24.3616 36.0392 -6.48212
23 1 -23.9569 36.6457 -5.87686
26 1 -23.2175 36.9889 -4.86197
27 1 -22.8527 36.2554 -4.33814
29 1 -22.2894 37.0498 -3.29869
30 1 -21.7969 36.2225 -3.42332
33 1 -19.5179 36.8859 -4.23025
31 1 -20.8016 36.3092 -3.46126
18 1 -25.8469 36.8947 -8.5522
17 1 -25.2356 36.499 -9.30865
21 1 -25.2119 35.6244 -6.26665
34 1 -19.596 37.8284 -4.39816
35 1 -18.8467 38.4077 -4.40403
15 1 -24.5875 37.4454 -9.06486
16 1 -24.286 36.518 -9.01735
14 1 -25.1676 37.825 -8.4172
36 1 -18.8101 39.1321 -5.02677
13 1 -25.0377 38.7046 -8.69987
37 1 -17.9381 39.2859 -4.66573
38 1 -17.0601 38.9917 -4.82323
39 1 -16.35 39.3631 -5.31398
40 1 -16.2524 39.7124 -4.41537
28 1 -23.1238 36.5936 -3.4247
32 1 -20.4829 36.8509 -4.17323
ITEM: TIMESTEP
4400000
ITEM: NUMBER OF ATOMS
100
ITEM: BOX BOUNDS ff ff ff
-5.0000000000000000e+01 5.0000000000000000e+01
-5.0000000000000000e+01 5.0000000000000000e+01
-5.0000000000000000e+01 5.0000000000000000e+01
ITEM: ATOMS id type x y z
151 1 4.84764 -21.3594 -16.716
200 1 5.30841 -21.6421 -17.4552
152 1 4.60698 -21.518 -15.8039
199 1 5.09052 -22.6353 -17.6171
153 1 4.6456 -22.011 -15.0679
154 1 4.06632 -22.7089 -14.7489
198 1 5.49142 -23.3271 -18.1571
157 1 3.92134 -24.4796 -13.3653
156 1 4.34043 -23.5962 -13.2133
155 1 4.37661 -22.9552 -13.8851
194 1 5.72498 -23.2373 -15.4837
197 1 6.14705 -23.7249 -17.5195
196 1 5.84615 -23.6148 -16.6242
195 1 5.85032 -22.7427 -16.3128
165 1 6.96536 -25.0279 -13.0522
161 1 5.44847 -25.0947 -15.668
160 1 4.85356 -25.8953 -15.4752
163 1 6.52446 -24.8666 -14.1679
164 1 6.72075 -24.1741 -13.5505
162 1 5.83923 -24.7325 -14.8717
166 1 6.92882 -25.7404 -12.4416
167 1 6.19537 -25.971 -11.8092
159 1 4.64349 -25.6403 -14.5142
158 1 4.20079 -25.2752 -13.7665
192 1 7.25046 -23.3315 -15.7231
193 1 6.52688 -23.4283 -15.0909
187 1 8.55945 -23.6177 -13.576
168 1 5.3976 -26.53 -11.5185
169 1 5.64507 -25.934 -10.7041
191 1 8.05608 -23.5855 -16.1588
188 1 8.94757 -24.1633 -14.3086
190 1 8.51943 -24.4243 -15.8991
189 1 8.65962 -23.7687 -15.1987
186 1 8.5522 -22.8535 -13.0456
185 1 9.37908 -22.8998 -12.4934
184 1 10.1495 -23.4781 -12.1781
182 1 9.2068 -24.2135 -10.5581
183 1 9.66972 -23.7481 -11.3311
181 1 9.02057 -23.3376 -10.2427
180 1 9.6582 -22.8726 -9.64481
21 1 -7.26077 43.5783 -9.75686
20 1 -7.94977 43.0292 -9.27241
27 1 -9.67399 46.9245 -11.9944
28 1 -10.2448 46.4799 -12.5286
22 1 -7.27902 44.3352 -10.343
171 1 7.09797 -26.0203 -11.1524
172 1 6.91357 -25.1105 -11.1303
170 1 6.51936 -26.1511 -10.4295
179 1 8.99923 -23.2901 -9.07259
178 1 8.10386 -23.4994 -8.74209
32 1 -12.0789 45.9228 -10.3088
31 1 -11.96 46.4582 -11.0924
30 1 -11.8277 46.7366 -12.0394
29 1 -11.0089 47.0233 -12.5756
19 1 -8.24537 42.0914 -9.00467
18 1 -7.98109 42.4588 -8.15865
26 1 -8.7264 46.8451 -11.6021
24 1 -8.25925 45.4111 -10.9764
23 1 -7.61571 45.3241 -10.2552
25 1 -8.04634 46.123 -11.5249
173 1 7.89451 -25.0506 -11.2995
174 1 8.03315 -25.289 -10.4252
175 1 7.41812 -24.9193 -9.79239
177 1 7.39789 -24.2584 -8.82253
176 1 7.43974 -23.9769 -9.70875
17 1 -7.02498 42.3694 -8.39654
16 1 -7.12197 41.6147 -7.6611
15 1 -7.51993 42.3397 -7.07409
38 1 -14.5019 44.31 -9.59798
39 1 -14.7859 44.1031 -8.73263
36 1 -14.3532 45.4953 -8.9001
37 1 -14.7065 45.1705 -9.67786
34 1 -12.763 46.3876 -8.62624
35 1 -13.6673 46.1084 -8.46294
33 1 -12.323 45.8962 -9.38011
40 1 -13.9257 44.2105 -8.63
41 1 -14.2603 44.3983 -7.77047
43 1 -14.2614 45.5282 -6.433
44 1 -14.5879 45.6377 -5.53019
14 1 -7.64636 43.3188 -6.92168
13 1 -7.99727 43.4402 -6.02221
42 1 -14.1091 44.6944 -6.7902
11 1 -8.7492 43.6086 -4.9209
45 1 -14.1834 45.3744 -4.60403
46 1 -14.4009 46.0564 -4.01951
50 1 -14.2205 47.275 -4.44013
1 1 -13.58 46.6353 -4.81457
2 1 -12.5593 46.8886 -4.81801
3 1 -12.3352 45.9835 -4.68322
4 1 -12.8188 45.3849 -5.21949
5 1 -12.8621 44.4609 -4.7493
12 1 -7.75835 43.5464 -5.09638
47 1 -15.2343 46.0885 -4.48295
48 1 -14.7902 46.5894 -5.14764
49 1 -14.5942 47.4989 -5.3648
6 1 -11.9624 44.764 -4.97941
8 1 -10.7585 44.5262 -3.99499
7 1 -11.6354 44.1791 -4.30323
10 1 -9.46194 43.1817 -4.47042
9 1 -9.95784 43.9734 -4.19843
ITEM: TIMESTEP
4500000
ITEM: NUMBER OF ATOMS
100
ITEM: BOX BOUNDS ff ff ff
-5.0000000000000000e+01 5.0000000000000000e+01
-5.0000000000000000e+01 5.0000000000000000e+01
-5.0000000000000000e+01 5.0000000000000000e+01
ITEM: ATOMS id type x y z
172 1 12.5866 -35.6398 -16.1007
173 1 12.2869 -34.8273 -16.4075
160 1 8.24618 -31.6903 -17.2324
159 1 7.58817 -31.0058 -17.6437
161 1 8.66248 -31.1352 -17.8932
171 1 12.9684 -35.2578 -16.9138
170 1 13.6278 -34.7551 -17.4333
169 1 12.9104 -34.2807 -17.8827
179 1 8.53113 -34.691 -15.7054
178 1 9.04696 -34.2263 -16.4484
175 1 10.633 -34.8498 -15.5799
174 1 11.6093 -34.7704 -15.684
163 1 9.89182 -32.5314 -18.1181
162 1 9.41075 -31.6917 -18.1827
154 1 7.43812 -28.0883 -17.1583
157 1 7.98632 -29.2384 -17.4019
158 1 7.69096 -30.1298 -17.2118
168 1 12.0855 -34.6392 -18.1816
180 1 7.96148 -34.7344 -14.9004
177 1 9.75558 -33.6225 -16.742
176 1 10.0765 -34.2336 -16.0589
165 1 9.96069 -34.2185 -17.8432
164 1 9.66006 -33.4241 -18.3504
167 1 11.4145 -33.9431 -18.1059
166 1 10.7376 -33.9023 -17.3541
151 1 5.59503 -28.8882 -17.5405
153 1 6.72104 -28.6675 -17.5182
152 1 6.03725 -28.3789 -16.8227
155 1 7.65423 -28.2874 -16.2778
156 1 7.38784 -29.216 -16.5494
184 1 5.82002 -34.7945 -16.3369
183 1 6.38283 -34.126 -16.7368
195 1 4.53406 -32.1093 -15.4362
194 1 3.5162 -32.0033 -15.5327
182 1 7.07 -34.2903 -16.1575
181 1 7.56852 -34.0645 -15.4246
196 1 4.25221 -31.4672 -16.0651
197 1 4.95124 -30.9105 -15.7478
198 1 5.43218 -30.493 -16.4423
199 1 4.74004 -30.3402 -17.0864
200 1 4.82636 -29.4765 -17.4101
185 1 4.99055 -35.3075 -15.9818
186 1 5.33116 -34.8749 -15.2173
193 1 3.40867 -32.8719 -16.1349
190 1 2.77553 -34.5511 -15.4412
187 1 4.55411 -34.3889 -15.0225
188 1 3.63525 -34.5429 -14.7183
189 1 2.67994 -34.774 -14.4985
192 1 2.912 -32.9562 -15.2846
191 1 2.64328 -33.6768 -15.9211
15 1 -17.1249 42.5442 -9.11362
16 1 -16.2705 42.9075 -9.08712
10 1 -19.4834 42.1421 -11.2249
8 1 -20.8201 42.8172 -10.901
11 1 -19.0249 41.56 -10.4973
13 1 -18.4113 42.6549 -9.41272
14 1 -18.03 42.0665 -8.85388
17 1 -16.7869 43.5587 -8.62079
18 1 -16.4927 44.1976 -7.88509
7 1 -20.83 43.2913 -10.049
9 1 -19.8769 42.9336 -10.9459
6 1 -20.6749 43.9207 -9.32127
1 1 -21.9585 43.8898 -6.71049
12 1 -19.0246 42.4653 -10.1612
20 1 -15.5193 43.5436 -8.81195
19 1 -15.5783 44.171 -8.07756
4 1 -21.7515 44.9836 -8.49164
3 1 -22.2221 45.216 -7.73354
2 1 -22.4613 44.6223 -7.02392
21 1 -15.2556 42.6471 -8.50692
5 1 -20.8748 44.5483 -8.56321
50 1 -21.7953 42.9942 -6.66089
49 1 -21.2439 42.2471 -6.4263
24 1 -15.3228 41.2237 -7.04927
22 1 -15.6575 41.7598 -8.45692
23 1 -15.9762 41.1048 -7.79287
41 1 -20.8838 42.7932 -2.93485
43 1 -21.6159 43.2481 -4.01059
42 1 -21.425 42.2929 -3.56984
40 1 -20.391 42.2163 -3.52652
28 1 -16.0248 39.7981 -5.646
47 1 -21.3838 41.5577 -5.57551
25 1 -15.3582 41.5477 -6.08636
26 1 -16.2427 41.6554 -5.76526
48 1 -20.947 41.3393 -6.36672
33 1 -18.2539 40.5737 -3.55987
31 1 -17.2849 40.1204 -3.28676
32 1 -18.112 39.6624 -3.14172
44 1 -21.9369 43.0883 -4.99891
38 1 -19.3508 40.7759 -4.28082
39 1 -19.8657 41.4518 -3.81459
37 1 -19.3688 41.3461 -5.08423
29 1 -16.7612 39.924 -5.05396
36 1 -19.1567 40.6043 -5.63948
30 1 -16.8343 39.9013 -4.12603
45 1 -22.2276 42.1851 -5.19187
46 1 -22.1307 41.8944 -6.1021
27 1 -16.2299 40.723 -5.81408
34 1 -17.8393 40.1448 -4.41047
35 1 -18.3034 40.3794 -5.2059
ITEM: TIMESTEP
4600000
ITEM: NUMBER OF ATOMS
100
ITEM: BOX BOUNDS ff ff ff
-5.0000000000000000e+01 5.0000000000000000e+01
-5.0000000000000000e+01 5.0000000000000000e+01
-5.0000000000000000e+01 5.0000000000000000e+01
ITEM: ATOMS id type x y z
193 1 6.85727 -27.4884 -22.6205
196 1 8.27291 -26.654 -23.6753
198 1 9.46224 -27.0229 -23.6093
192 1 6.92822 -27.3329 -23.5396
194 1 7.80852 -27.4685 -22.7003
195 1 8.57108 -26.8404 -22.7805
197 1 8.72802 -27.4732 -23.9548
199 1 9.63244 -27.4577 -22.7307
191 1 6.64672 -26.418 -23.2454
190 1 6.53335 -25.4793 -23.2372
151 1 9.02404 -27.7715 -21.1766
152 1 8.6671 -27.054 -21.6327
200 1 9.66351 -27.8876 -21.9354
189 1 6.92522 -25.2027 -22.3901
188 1 5.97442 -25.2517 -22.3788
185 1 6.39776 -24.9462 -20.7801
186 1 5.47738 -25.0001 -20.8837
184 1 6.50058 -24.1708 -20.2407
187 1 5.81794 -25.6094 -21.5046
157 1 7.43373 -26.933 -19.229
156 1 7.99885 -27.6301 -18.975
155 1 8.79158 -27.3431 -19.3804
158 1 6.95856 -27.2742 -18.3707
153 1 8.67645 -26.3511 -20.7685
154 1 9.1044 -27.1363 -20.3073
160 1 5.63018 -27.7465 -18.9804
159 1 6.4453 -27.2261 -19.1674
181 1 5.64639 -25.8124 -19.9215
182 1 6.41933 -25.3453 -19.6161
183 1 6.74128 -24.4827 -19.3626
178 1 4.06779 -25.6621 -18.1532
180 1 4.84438 -25.5025 -19.5386
161 1 5.17167 -28.1854 -18.2485
162 1 5.99142 -28.015 -17.679
164 1 6.18499 -27.2179 -16.7205
163 1 5.37022 -27.4405 -17.2258
179 1 4.8956 -25.5948 -18.5782
177 1 4.75727 -26.0608 -17.6845
176 1 4.41947 -26.3725 -16.8342
170 1 7.62149 -24.3056 -15.0774
169 1 7.9672 -24.3834 -15.966
175 1 4.55713 -25.5835 -16.3864
165 1 7.11689 -27.3664 -16.5839
166 1 7.69381 -26.9676 -15.9094
173 1 5.8848 -24.7055 -16.5934
172 1 6.53852 -25.0598 -16.0205
171 1 6.81956 -24.9364 -15.1244
168 1 7.62529 -25.2411 -16.4536
167 1 7.52254 -26.0241 -15.8927
174 1 5.37471 -25.3149 -16.083
26 1 -15.4794 42.0174 -11.4646
25 1 -16.1394 42.3936 -10.8239
34 1 -11.8324 42.5445 -12.9948
28 1 -15.1468 41.8578 -12.512
31 1 -14.3325 42.8537 -13.6667
27 1 -14.552 42.0451 -11.778
32 1 -13.5491 43.226 -13.3077
33 1 -12.6994 43.0121 -12.9368
30 1 -13.7984 42.2013 -13.135
35 1 -10.9673 42.7839 -13.4336
36 1 -10.8315 42.4608 -12.5172
24 1 -16.4421 43.0421 -10.2184
23 1 -17.2158 43.5557 -10.3625
22 1 -17.5062 43.8642 -11.2427
21 1 -17.4614 44.8082 -11.5974
20 1 -16.8528 45.3675 -12.2067
19 1 -16.4923 46.1726 -12.5409
49 1 -12.5604 44.0799 -10.0356
50 1 -12.1586 45.0097 -10.1002
48 1 -13.2451 44.5458 -10.6139
1 1 -11.6658 45.4449 -10.7952
18 1 -17.2523 46.8106 -12.5462
2 1 -12.1065 46.3065 -11.1951
3 1 -12.2947 47.2058 -11.5164
29 1 -14.4304 41.4967 -12.9701
40 1 -9.35532 43.9635 -11.7759
39 1 -9.70746 43.3151 -11.1279
41 1 -9.36452 44.7257 -11.2199
37 1 -10.555 43.136 -11.8855
38 1 -9.85783 42.548 -11.6971
47 1 -12.5279 44.0739 -11.162
45 1 -11.6573 43.5363 -10.8198
44 1 -11.155 44.2535 -10.4049
46 1 -12.4857 43.1383 -11.1359
15 1 -16.3737 47.1056 -10.7172
16 1 -16.105 47.5185 -11.469
17 1 -16.7877 47.4671 -12.0828
4 1 -13.3023 47.1477 -11.6386
5 1 -13.2022 47.712 -10.8325
42 1 -9.30785 44.1183 -10.3582
43 1 -10.2125 43.9586 -10.4066
14 1 -16.0703 46.514 -10.024
6 1 -13.6602 48.5479 -10.6424
13 1 -15.7996 47.3967 -9.84364
11 1 -15.213 48.1037 -8.7088
9 1 -15.7472 49.1625 -9.76864
8 1 -15.4775 48.3088 -10.1616
7 1 -14.5556 48.3096 -10.4075
12 1 -15.2258 47.1656 -9.10644
10 1 -15.8731 48.8382 -8.83776
ITEM: TIMESTEP
4700000
ITEM: NUMBER OF ATOMS
100
ITEM: BOX BOUNDS ff ff ff
-5.0000000000000000e+01 5.0000000000000000e+01
-5.0000000000000000e+01 5.0000000000000000e+01
-5.0000000000000000e+01 5.0000000000000000e+01
ITEM: ATOMS id type x y z
182 1 14.6255 -20.6811 -19.869
181 1 15.1187 -20.3639 -19.1265
185 1 12.9131 -22.186 -18.3019
184 1 13.7764 -21.8483 -18.5353
180 1 15.3713 -20.9805 -18.4158
179 1 16.3656 -21.0473 -18.2918
183 1 14.2882 -21.351 -19.2519
42 1 -15.0185 39.5529 -16.5497
41 1 -15.654 38.8517 -16.2523
43 1 -14.2494 39.7664 -16.9661
44 1 -13.7593 40.2366 -17.6055
29 1 -19.3361 40.8755 -17.6036
191 1 11.2851 -22.648 -19.3195
192 1 10.8073 -21.7986 -19.0703
193 1 11.7426 -21.727 -19.4653
187 1 11.39 -22.5883 -18.0928
188 1 11.0713 -23.5739 -18.3776
178 1 16.8583 -21.72 -17.7828
194 1 11.7569 -20.8407 -19.0276
195 1 11.1319 -20.1029 -18.8904
186 1 12.2561 -22.4644 -17.6698
196 1 11.723 -20.0023 -18.1247
197 1 12.4984 -20.4381 -17.77
198 1 12.5877 -21.0621 -17.1157
40 1 -15.6725 39.0581 -17.2856
39 1 -16.1879 38.337 -17.731
20 1 -20.0709 39.5721 -15.6083
18 1 -18.4093 40.3693 -15.1961
35 1 -18.0523 37.7684 -18.0888
36 1 -17.8425 36.8603 -17.8779
37 1 -17.4441 37.2345 -16.9645
21 1 -20.9998 39.8851 -15.6673
22 1 -21.5839 39.9323 -16.4136
33 1 -18.4668 39.2299 -19.0496
46 1 -13.8872 41.8931 -18.026
45 1 -14.08 40.9047 -18.21
50 1 -14.7921 42.6046 -16.3609
47 1 -14.5691 42.2959 -17.423
25 1 -20.6289 41.9335 -15.3449
31 1 -18.961 40.8033 -18.9684
30 1 -19.6711 41.151 -18.4067
32 1 -19.2098 39.8143 -18.894
48 1 -15.5249 42.4493 -17.6324
28 1 -19.857 41.665 -17.4537
27 1 -19.8379 41.6829 -16.526
190 1 10.5004 -22.8928 -19.8514
189 1 10.392 -23.4715 -19.0397
177 1 16.0085 -21.5636 -17.3711
176 1 16.76 -21.0869 -17.0357
175 1 16.7462 -21.9806 -16.7334
199 1 12.003 -21.0262 -16.3101
200 1 12.5818 -20.3985 -15.8436
151 1 12.879 -19.676 -15.2971
17 1 -17.5639 40.2539 -15.6005
19 1 -19.3294 39.9845 -15.0435
34 1 -18.6107 38.3377 -18.6428
16 1 -16.7034 40.3456 -15.2078
38 1 -16.6942 37.6765 -17.22
23 1 -21.2099 40.739 -16.4025
1 1 -15.2872 42.2023 -15.5526
49 1 -15.6908 42.7203 -16.7039
2 1 -15.3731 42.602 -14.681
24 1 -21.277 41.5634 -15.9116
26 1 -20.1831 42.4358 -16.0172
171 1 17.911 -19.0527 -15.7885
174 1 17.0515 -21.6831 -15.7272
173 1 17.5915 -20.8969 -15.7918
172 1 17.5445 -19.8882 -15.7001
153 1 14.2108 -19.1739 -15.7438
152 1 13.2992 -19.1756 -16.007
167 1 17.8064 -20.3421 -13.269
166 1 17.46 -19.537 -13.7607
154 1 13.7381 -18.345 -15.3567
155 1 14.1257 -17.4665 -14.9641
14 1 -16.8277 42.089 -15.9267
15 1 -17.015 41.1673 -15.5888
5 1 -16.6099 41.697 -13.0415
6 1 -17.2545 41.32 -12.4221
4 1 -15.8604 42.2792 -13.1737
3 1 -15.4337 41.9563 -13.9838
164 1 15.6125 -19.7464 -13.5188
170 1 18.6214 -19.1623 -15.0451
163 1 16.0914 -19.0341 -14.0901
165 1 16.6176 -19.5326 -13.2928
169 1 19.0521 -19.9298 -14.5997
168 1 18.5656 -20.1726 -13.8828
157 1 12.4322 -17.0363 -14.2419
158 1 12.2086 -17.4336 -13.4476
159 1 13.0652 -17.0048 -13.2702
156 1 13.3016 -17.3311 -14.4443
7 1 -17.8725 40.8501 -13.0927
13 1 -17.7625 42.2642 -16.0009
12 1 -18.1 42.554 -15.1655
11 1 -18.2996 41.7372 -14.6496
9 1 -18.8489 42.1156 -13.7911
8 1 -18.6445 41.3476 -13.327
10 1 -17.9487 42.2757 -13.9186
162 1 15.3866 -18.4997 -13.9026
161 1 14.597 -18.1464 -13.5554
160 1 13.7594 -17.7462 -13.3041
ITEM: TIMESTEP
4800000
ITEM: NUMBER OF ATOMS
100
ITEM: BOX BOUNDS ff ff ff
-5.0000000000000000e+01 5.0000000000000000e+01
-5.0000000000000000e+01 5.0000000000000000e+01
-5.0000000000000000e+01 5.0000000000000000e+01
ITEM: ATOMS id type x y z
15 1 -15.4489 37.7981 -25.8524
17 1 -13.6744 37.9741 -25.6541
16 1 -14.4915 37.9272 -26.098
10 1 -17.1279 39.1459 -24.169
9 1 -17.3109 38.2 -23.7862
11 1 -17.299 40.0436 -24.5
14 1 -15.9272 38.0895 -25.0424
13 1 -15.9708 38.9232 -24.5461
12 1 -16.4647 39.6657 -24.9833
189 1 4.79279 -12.6004 -22.7274
1 1 -20.3624 34.6878 -22.9908
2 1 -20.0806 35.5803 -23.0967
4 1 -19.5552 36.1336 -24.594
19 1 -14.2619 37.4 -24.7225
6 1 -18.3013 36.4274 -24.5424
18 1 -13.7763 36.9837 -25.5005
20 1 -13.7652 37.9445 -24.1013
21 1 -13.7016 37.4102 -23.2674
22 1 -13.7224 38.2538 -22.8387
23 1 -13.1989 38.3021 -21.928
8 1 -18.3496 38.0569 -23.8795
7 1 -18.4833 37.1042 -23.8076
180 1 4.70143 -16.2337 -20.8237
183 1 4.58135 -14.5215 -21.4388
182 1 5.07536 -15.3108 -21.5724
185 1 4.86861 -13.4548 -22.1357
181 1 5.59303 -16.1259 -21.3319
186 1 4.67024 -13.8827 -23.0184
184 1 5.41938 -14.189 -21.8608
187 1 3.75716 -13.5751 -22.9059
188 1 4.16788 -12.7706 -23.4502
191 1 5.49468 -11.8559 -22.5396
192 1 6.41885 -11.8561 -22.7993
190 1 5.7509 -12.781 -22.6512
48 1 -18.4961 33.9854 -21.9222
47 1 -17.7507 33.6567 -21.5204
50 1 -19.7884 34.1036 -22.5141
49 1 -19.41 34.0633 -21.556
3 1 -20.1635 36.007 -23.9568
28 1 -14.3434 35.4184 -22.3736
5 1 -18.7683 35.619 -24.4676
27 1 -14.835 35.6975 -21.5098
26 1 -14.1523 36.2673 -21.7665
24 1 -14.1433 38.2476 -21.8287
25 1 -14.2613 37.2393 -21.8537
177 1 4.27 -18.4433 -19.7852
178 1 3.83674 -17.8528 -20.4363
179 1 4.42578 -17.0629 -20.5436
176 1 4.58594 -19.0042 -19.0688
196 1 8.77606 -10.3381 -21.0072
197 1 9.56065 -10.5859 -20.3939
195 1 7.94382 -10.769 -21.3085
193 1 7.04619 -11.4718 -22.2166
194 1 7.94045 -11.4027 -21.9759
198 1 8.97103 -11.3037 -20.6475
199 1 8.16277 -11.6569 -20.36
46 1 -18.1154 33.6647 -20.664
43 1 -16.6308 34.1728 -19.4175
45 1 -17.4373 34.2796 -20.2992
44 1 -16.5029 34.5277 -20.3718
41 1 -16.8654 35.7044 -19.3372
35 1 -17.8376 36.5613 -21.1595
42 1 -16.1944 35.0587 -19.5331
31 1 -16.0821 35.5409 -21.7009
32 1 -16.5427 34.787 -21.8551
29 1 -14.9845 35.1566 -23.0549
30 1 -15.7053 35.4871 -22.5626
173 1 2.69183 -17.525 -17.8787
174 1 2.95955 -17.8777 -18.7928
175 1 3.7829 -18.4518 -18.8309
158 1 8.3512 -17.0415 -18.529
157 1 8.08487 -16.0958 -18.4713
154 1 9.44481 -14.5476 -19.1708
155 1 8.80881 -14.8516 -18.5005
200 1 8.71949 -11.6248 -19.636
151 1 8.94655 -11.9226 -18.7784
152 1 8.97357 -12.8235 -19.0959
153 1 8.90594 -13.8165 -19.4638
38 1 -17.6589 36.5086 -19.6052
40 1 -16.5894 36.5234 -19.7591
39 1 -17.1004 37.3126 -19.6362
36 1 -18.4368 36.2713 -20.4177
37 1 -18.5652 36.8969 -19.7119
33 1 -17.4602 35.1778 -21.7514
34 1 -17.9438 35.9605 -21.8714
172 1 3.11227 -18.3525 -17.5447
171 1 3.06568 -18.5112 -16.5661
160 1 6.93391 -16.9711 -18.3616
156 1 8.74331 -15.6166 -17.8942
159 1 7.63428 -17.5825 -18.2859
170 1 3.19269 -17.7887 -15.9947
169 1 4.021 -17.4255 -15.6847
163 1 7.05563 -16.5406 -16.0143
161 1 7.11898 -16.5936 -17.4455
162 1 6.49265 -16.8517 -16.7349
166 1 5.9605 -17.5248 -15.879
168 1 4.88575 -16.9619 -15.8157
167 1 5.0526 -17.8752 -16.1626
165 1 6.75001 -17.4962 -15.304
164 1 6.3936 -16.5561 -15.3419
ITEM: TIMESTEP
4900000
ITEM: NUMBER OF ATOMS
100
ITEM: BOX BOUNDS ff ff ff
-5.0000000000000000e+01 5.0000000000000000e+01
-5.0000000000000000e+01 5.0000000000000000e+01
-5.0000000000000000e+01 5.0000000000000000e+01
ITEM: ATOMS id type x y z
193 1 8.6027 -20.0873 -27.0656
192 1 9.53385 -20.3127 -26.9393
191 1 9.19149 -20.196 -26.031
1 1 -19.1018 45.9877 -23.5919
166 1 9.53715 -20.7336 -23.4692
196 1 7.51606 -19.6885 -26.9054
197 1 6.79043 -19.4359 -26.3395
194 1 8.86337 -19.2471 -26.6751
195 1 8.15111 -19.1204 -27.3254
189 1 8.32058 -19.999 -24.6324
190 1 9.14511 -19.8679 -25.1636
39 1 -24.0102 46.8464 -22.0745
2 1 -19.9874 45.7753 -23.5672
3 1 -20.4822 46.1236 -22.8308
4 1 -20.4006 45.2308 -22.4336
50 1 -18.8481 46.3785 -24.4142
5 1 -19.7414 44.5895 -22.3374
6 1 -19.0694 43.8466 -22.3553
44 1 -21.331 47.5036 -23.2403
42 1 -22.6112 47.1217 -22.384
46 1 -19.7803 47.654 -23.0195
49 1 -18.3185 47.137 -24.5494
45 1 -20.4049 47.4581 -23.6899
152 1 4.82751 -21.321 -23.3808
151 1 4.78108 -20.374 -23.4944
163 1 8.2749 -21.3038 -22.493
164 1 9.04701 -21.4222 -21.9026
165 1 9.64565 -20.9756 -22.6143
168 1 10.5961 -20.1456 -23.2428
198 1 6.39048 -19.972 -25.6333
200 1 5.0501 -20.127 -24.398
199 1 5.45258 -19.7394 -25.234
185 1 8.50001 -18.5944 -23.2794
184 1 7.57991 -18.8409 -23.0015
167 1 10.5552 -21.0162 -23.6208
169 1 9.99075 -20.0299 -22.4944
188 1 7.62411 -19.3248 -24.958
186 1 8.71338 -18.9659 -24.1085
187 1 8.16039 -18.6064 -24.7539
38 1 -24.9243 46.9528 -21.8052
37 1 -25.4036 47.0964 -22.66
7 1 -18.4257 44.4148 -22.5566
8 1 -17.6972 44.6021 -22.0809
9 1 -17.2608 43.7129 -22.0968
10 1 -16.3696 43.7544 -21.7811
11 1 -16.4267 43.9908 -20.8346
40 1 -23.7509 45.9992 -21.9534
41 1 -22.9703 46.5703 -21.7289
43 1 -22.0877 47.9134 -22.7363
47 1 -19.0194 47.6323 -23.5655
48 1 -18.0982 47.3387 -23.6286
158 1 6.72042 -20.4475 -23.9902
161 1 6.58119 -21.7754 -22.19
162 1 7.53378 -21.7803 -22.0336
155 1 5.47039 -22.9369 -23.7576
153 1 4.66366 -21.8137 -24.178
154 1 4.97936 -22.5969 -24.532
181 1 6.47741 -18.9144 -20.6098
182 1 6.62001 -19.4481 -21.4079
183 1 7.33631 -19.256 -22.0789
171 1 10.4035 -20.6597 -20.9304
172 1 9.46898 -20.6001 -20.5953
170 1 10.5207 -20.5228 -21.8543
13 1 -17.0333 43.844 -19.3309
12 1 -16.2137 43.7983 -19.9079
35 1 -24.8239 48.1313 -21.6302
36 1 -25.2157 47.9657 -22.454
28 1 -21.7668 47.5986 -20.0785
27 1 -21.6063 47.4133 -19.1671
24 1 -19.7051 47.0902 -18.2698
23 1 -18.9568 46.4284 -18.1901
20 1 -17.0651 46.8277 -19.125
21 1 -17.8902 46.5402 -19.5426
22 1 -18.6994 46.3401 -19.1186
25 1 -20.1963 47.861 -18.0376
157 1 6.39647 -21.3409 -24.1405
160 1 7.0968 -21.509 -22.9909
159 1 7.19422 -20.5347 -23.1929
156 1 5.82659 -22.0799 -23.9311
176 1 7.30765 -18.4793 -19.8932
178 1 7.42838 -20.0816 -19.4115
179 1 6.68109 -20.0863 -19.9722
174 1 8.63058 -18.9575 -20.3421
175 1 8.12217 -18.1797 -20.2515
173 1 9.23699 -19.6081 -20.7493
180 1 5.96061 -19.4564 -19.9841
15 1 -17.7839 44.1513 -20.1476
33 1 -24.4089 48.564 -20.6925
32 1 -23.5897 48.191 -20.4133
34 1 -25.2523 48.1957 -20.8062
14 1 -17.6754 43.225 -19.9501
17 1 -16.7415 45.2621 -19.0438
30 1 -23.3358 46.4571 -19.9888
31 1 -23.5719 47.3535 -20.0183
29 1 -22.5156 47.0875 -19.9976
19 1 -17.1786 46.2982 -18.3552
18 1 -17.6055 45.6017 -18.964
26 1 -20.8173 47.536 -18.6223
177 1 7.41036 -19.4016 -20.0987
16 1 -17.3051 44.9012 -19.7315
ITEM: TIMESTEP
5000000
ITEM: NUMBER OF ATOMS
100
ITEM: BOX BOUNDS ff ff ff
-5.0000000000000000e+01 5.0000000000000000e+01
-5.0000000000000000e+01 5.0000000000000000e+01
-5.0000000000000000e+01 5.0000000000000000e+01
ITEM: ATOMS id type x y z
182 1 14.9033 -24.8274 -23.916
181 1 15.791 -24.8672 -24.2582
183 1 14.1407 -24.563 -24.4889
185 1 13.2374 -24.2567 -23.437
184 1 13.2087 -24.6425 -24.364
180 1 15.4376 -23.9974 -24.3804
174 1 15.0721 -25.0921 -21.6816
175 1 15.97 -25.2135 -21.4086
179 1 15.3091 -23.3411 -23.6685
176 1 15.7385 -24.4708 -21.9889
178 1 15.5735 -23.7486 -22.86
177 1 15.0309 -24.5002 -22.6664
186 1 12.7085 -23.9815 -22.735
187 1 12.3404 -23.0885 -22.7448
188 1 12.7186 -22.3249 -23.1928
190 1 13.7696 -21.9222 -23.3518
189 1 13.0113 -21.4703 -23.0128
171 1 15.9379 -25.821 -19.5283
173 1 15.0512 -25.3634 -20.7404
172 1 15.3997 -25.1537 -19.8843
191 1 14.1651 -22.5719 -22.7778
192 1 13.8183 -23.031 -21.9424
193 1 13.0718 -22.377 -21.9503
157 1 15.947 -22.4846 -17.183
156 1 16.4039 -22.7653 -17.9473
194 1 12.2045 -21.9611 -22.0209
195 1 12.194 -21.2317 -21.3482
153 1 15.3447 -22.216 -19.5601
154 1 15.9585 -22.7255 -19.0535
155 1 16.9642 -22.7439 -18.7005
196 1 12.2824 -20.6372 -20.5881
169 1 14.9215 -26.83 -19.3291
168 1 14.2402 -26.4415 -18.7292
170 1 15.9031 -26.8016 -19.279
167 1 14.0374 -25.7479 -18.0033
165 1 12.2699 -25.5218 -18.1034
164 1 12.8108 -24.738 -18.099
159 1 15.1364 -23.7998 -17.2963
158 1 15.0332 -22.9092 -17.1895
152 1 14.8111 -22.1798 -18.6107
197 1 12.1758 -20.0689 -19.8253
198 1 13.039 -19.934 -19.5682
199 1 13.722 -20.6494 -19.6797
200 1 14.0967 -21.457 -19.3915
151 1 14.6748 -21.1914 -18.6817
166 1 13.1291 -25.9477 -18.2693
162 1 12.6994 -24.4419 -16.535
163 1 12.8767 -25.124 -17.177
160 1 14.212 -24.0248 -17.2026
161 1 13.3616 -23.8468 -16.8844
35 1 -29.7857 39.1545 -14.1139
36 1 -29.5911 38.6463 -14.9161
40 1 -27.4853 38.7456 -13.6944
41 1 -26.7605 39.4003 -13.5015
42 1 -26.003 39.1397 -14.0906
38 1 -28.6399 39.2957 -14.7941
37 1 -29.0635 39.1121 -15.6415
39 1 -28.038 39.4663 -14.0811
34 1 -29.6065 39.9274 -13.5537
43 1 -25.4445 38.3726 -14.343
33 1 -29.4016 39.3608 -12.6969
44 1 -24.8214 37.6428 -14.2723
45 1 -24.1224 38.078 -13.7259
32 1 -29.5178 40.1537 -12.092
31 1 -30.2768 40.8276 -11.9949
46 1 -24.8277 37.659 -13.19
47 1 -24.1201 37.4828 -12.5811
48 1 -23.3889 37.5542 -11.8068
30 1 -30.0245 41.6761 -11.6353
49 1 -23.3493 38.2292 -11.1474
28 1 -30.3673 42.841 -11.4669
27 1 -29.7492 42.4687 -10.8535
29 1 -30.9328 42.054 -11.7209
26 1 -30.193 43.1278 -10.2949
50 1 -24.0208 37.9964 -10.5076
1 1 -24.5859 38.4823 -11.182
2 1 -24.2126 39.2139 -11.7895
3 1 -24.6003 40.1463 -11.4737
4 1 -25.2133 39.5705 -11.8867
5 1 -26.1802 39.6078 -11.6358
25 1 -30.506 43.8613 -10.8479
23 1 -29.2116 43.5497 -12.0639
22 1 -29.0192 42.6445 -12.1571
8 1 -27.351 40.3784 -10.9751
9 1 -26.7009 41.1203 -10.9413
6 1 -26.2532 38.9095 -11.0253
7 1 -26.8959 39.6055 -10.7295
24 1 -30.0155 43.8965 -11.6779
21 1 -28.8629 42.2807 -11.2894
20 1 -28.6248 42.3806 -10.3624
10 1 -26.9602 41.6663 -10.2022
14 1 -27.3119 43.2914 -8.70792
13 1 -26.4856 43.0505 -9.2582
11 1 -26.2227 42.0377 -9.67744
19 1 -29.2827 42.1593 -9.66044
18 1 -29.3996 42.7625 -8.9417
17 1 -28.5926 42.4157 -8.58036
12 1 -26.6883 42.2143 -8.87282
15 1 -27.7713 43.3883 -7.77807
16 1 -28.1674 42.5188 -7.69498
ITEM: TIMESTEP
5100000
ITEM: NUMBER OF ATOMS
100
ITEM: BOX BOUNDS ff ff ff
-5.0000000000000000e+01 5.0000000000000000e+01
-5.0000000000000000e+01 5.0000000000000000e+01
-5.0000000000000000e+01 5.0000000000000000e+01
ITEM: ATOMS id type x y z
188 1 6.07353 -22.6774 -15.9281
189 1 5.76428 -23.5623 -15.8161
190 1 5.11704 -23.9751 -16.4627
191 1 4.96828 -23.1155 -16.8871
187 1 6.39885 -22.3071 -16.8206
186 1 6.94555 -22.0694 -17.6266
184 1 7.79572 -20.4976 -17.1223
185 1 7.415 -21.3657 -17.1672
182 1 7.89472 -19.2741 -17.9575
181 1 7.62312 -18.6345 -17.3266
175 1 5.56371 -16.616 -16.239
174 1 4.71849 -16.7342 -15.7146
180 1 6.75137 -18.3963 -17.6222
183 1 8.49165 -20.0125 -17.6135
179 1 6.94144 -17.5787 -17.1496
176 1 6.29986 -16.0171 -16.238
177 1 6.44942 -15.892 -17.1847
178 1 6.95749 -16.6494 -16.9634
196 1 4.19494 -22.8436 -13.9351
192 1 4.50767 -22.2792 -16.936
193 1 4.08209 -22.567 -16.0985
195 1 4.35193 -23.0182 -14.8712
172 1 3.76844 -16.8051 -14.4744
173 1 4.04374 -16.2594 -15.205
197 1 4.52676 -22.4988 -13.0612
200 1 5.57344 -20.9964 -13.4336
199 1 4.70464 -21.0547 -13.063
194 1 3.80067 -23.302 -15.6273
166 1 3.56195 -20.2699 -14.6463
165 1 4.0858 -19.6978 -15.3768
162 1 6.59313 -19.965 -16.2508
164 1 4.56261 -20.3289 -15.9016
163 1 5.56369 -19.9928 -16.0546
170 1 2.37758 -17.8246 -14.5053
169 1 2.37891 -18.8915 -14.4276
171 1 3.33119 -17.7116 -14.4398
198 1 4.53437 -21.7205 -12.4638
151 1 6.44693 -21.5563 -13.5283
168 1 2.48883 -19.1718 -13.4939
167 1 3.00242 -19.6256 -14.1752
152 1 7.37806 -21.8465 -13.7313
153 1 6.90795 -21.9227 -14.5783
161 1 6.75949 -19.2178 -15.7209
160 1 7.46919 -19.7136 -15.2161
159 1 8.14407 -20.3673 -15.5637
43 1 -13.2473 40.6108 -13.2125
47 1 -11.3593 38.9872 -12.9222
48 1 -10.7802 39.0462 -12.2063
45 1 -12.4506 40.1434 -11.8182
46 1 -11.8977 39.6236 -12.4659
44 1 -12.4645 40.7718 -12.6
154 1 6.95099 -22.3007 -15.4561
155 1 7.8325 -22.3969 -15.7141
158 1 8.94917 -20.8366 -15.7512
156 1 8.78175 -22.5644 -15.8444
157 1 8.55134 -21.6564 -15.561
50 1 -11.4015 38.4048 -11.0276
49 1 -10.5374 38.8436 -11.3054
41 1 -13.031 39.1041 -14.2976
42 1 -13.4101 39.7525 -13.6553
40 1 -12.486 38.2689 -14.3623
38 1 -12.7441 36.6894 -13.764
39 1 -13.1182 37.6097 -13.9715
1 1 -11.0163 37.6388 -10.6513
5 1 -12.472 35.7343 -9.06467
3 1 -11.4072 37.0002 -9.71784
32 1 -15.2331 37.5129 -11.202
37 1 -13.2775 37.0068 -13.0037
2 1 -10.8665 37.7793 -9.70389
30 1 -15.2093 37.944 -9.40428
29 1 -15.1144 37.492 -8.55137
31 1 -15.4199 37.9419 -10.3374
36 1 -12.8659 37.7109 -12.5181
19 1 -12.8025 38.6421 -7.25647
20 1 -12.9691 39.4116 -6.73965
18 1 -13.3815 38.0751 -6.76533
17 1 -13.0946 37.1294 -6.96634
4 1 -11.9069 36.4841 -9.01045
6 1 -11.5529 35.5564 -8.76796
7 1 -10.847 35.9974 -8.29119
33 1 -14.4488 38.0473 -11.307
9 1 -9.93308 37.2497 -9.14606
8 1 -10.726 36.5641 -9.13656
34 1 -13.559 38.0224 -10.9684
35 1 -13.5869 37.9029 -11.9425
15 1 -12.479 37.8584 -8.06495
14 1 -12.1881 38.5929 -8.64662
12 1 -11.2833 38.865 -8.20921
11 1 -10.7711 38.1247 -7.99493
28 1 -15.0616 37.9504 -7.70075
27 1 -14.4957 37.7092 -6.90331
23 1 -13.9075 38.8907 -4.58168
22 1 -13.2298 39.571 -4.8656
21 1 -13.0164 39.1818 -5.84052
16 1 -12.8657 37.0439 -7.88008
13 1 -12.0789 39.4221 -8.17834
10 1 -10.0233 37.6036 -8.22045
26 1 -14.4779 37.6711 -5.96921
25 1 -14.4592 38.1885 -5.14805
24 1 -14.2487 38.1278 -4.1357
ITEM: TIMESTEP
5200000
ITEM: NUMBER OF ATOMS
100
ITEM: BOX BOUNDS ff ff ff
-5.0000000000000000e+01 5.0000000000000000e+01
-5.0000000000000000e+01 5.0000000000000000e+01
-5.0000000000000000e+01 5.0000000000000000e+01
ITEM: ATOMS id type x y z
174 1 4.14033 -16.9637 -18.2777
175 1 3.23815 -17.2791 -18.4747
172 1 5.31028 -17.9822 -18.2618
173 1 4.38619 -17.9054 -18.4472
180 1 2.90795 -16.1075 -16.311
155 1 2.70302 -11.1163 -19.701
12 1 -16.7608 44.9527 -19.4766
10 1 -15.8045 45.9007 -19.3222
9 1 -15.8774 46.8282 -18.9167
176 1 2.72695 -16.6357 -18.0097
171 1 6.1976 -17.8174 -17.91
170 1 5.6988 -17.126 -17.5147
169 1 5.56393 -16.2093 -17.3702
181 1 2.13596 -15.6939 -15.7756
182 1 1.89358 -15.6592 -16.7649
177 1 2.61214 -16.9748 -17.1224
178 1 3.14919 -17.6083 -16.5041
179 1 2.84242 -16.8957 -15.82
168 1 5.86614 -15.9994 -18.2773
167 1 6.59271 -16.3319 -17.7369
185 1 1.19217 -13.8302 -17.87
184 1 1.90396 -14.3198 -17.37
183 1 1.64626 -15.2239 -17.6082
163 1 5.63454 -13.7704 -18.5198
166 1 6.95239 -15.4429 -17.9992
165 1 6.82701 -14.609 -17.3726
164 1 6.42819 -14.2054 -18.1448
187 1 1.08514 -12.263 -16.975
157 1 3.85746 -12.036 -19.9231
156 1 3.56454 -11.1681 -20.2204
158 1 4.08274 -12.7734 -19.2248
154 1 2.14135 -10.2735 -19.6727
153 1 1.72455 -10.7138 -18.9401
152 1 2.02397 -9.98844 -18.3299
151 1 1.41052 -9.96792 -17.6452
15 1 -19.0443 45.7953 -18.054
16 1 -19.4642 46.1084 -17.2809
14 1 -18.3658 45.3725 -18.6542
13 1 -17.4635 45.2458 -18.8321
6 1 -15.417 45.27 -17.9438
11 1 -16.7604 45.8843 -19.2971
8 1 -16.3222 46.805 -18.103
7 1 -15.499 46.2679 -18.0192
186 1 0.831339 -12.9118 -17.7136
159 1 4.03459 -13.1248 -20.218
161 1 5.05769 -14.0267 -19.53
160 1 4.18675 -14.0393 -19.9941
162 1 5.25666 -14.6233 -18.7894
188 1 1.89184 -12.7888 -17.3369
190 1 1.20063 -13.1885 -15.8533
189 1 1.34216 -13.3463 -16.7976
199 1 -0.0275786 -10.1517 -17.9072
200 1 0.781005 -10.6887 -17.9322
197 1 -0.104875 -10.7073 -16.4358
19 1 -20.7147 45.7809 -15.3556
18 1 -19.8121 46.06 -15.5147
17 1 -19.9261 46.3205 -16.4103
3 1 -16.7584 45.8896 -17.0605
49 1 -17.9876 43.9328 -15.8103
1 1 -17.9885 44.7644 -17.4289
50 1 -17.9087 44.0437 -16.741
5 1 -15.6592 44.3946 -17.5566
4 1 -16.2294 45.0682 -16.9895
191 1 0.517806 -13.4247 -15.1661
193 1 0.0847482 -12.2674 -15.158
192 1 0.147608 -12.9251 -15.8488
194 1 -0.83518 -12.1893 -15.0195
195 1 -0.419886 -11.3781 -14.6738
196 1 -0.533514 -11.1512 -15.5985
198 1 -0.461797 -10.7141 -17.2834
21 1 -22.1205 44.7377 -15.739
20 1 -21.5257 45.2458 -15.2446
2 1 -17.6028 45.5811 -17.5088
40 1 -16.2055 47.886 -13.7387
39 1 -16.0304 47.214 -13.0474
48 1 -18.4726 44.0223 -14.9757
47 1 -18.6931 44.6777 -14.3293
46 1 -18.0578 45.2344 -13.7811
42 1 -17.295 47.5241 -13.7257
45 1 -17.811 45.9293 -14.3965
44 1 -17.2458 46.3492 -14.9835
43 1 -17.5884 47.138 -14.5794
24 1 -20.7138 43.5671 -14.3584
23 1 -21.7393 43.5873 -14.6231
22 1 -21.6656 43.9269 -15.5394
25 1 -20.0198 43.0601 -13.9115
38 1 -15.8394 46.2731 -13.1166
37 1 -15.8298 45.281 -13.0857
41 1 -17.0064 48.3285 -14.0834
26 1 -19.4297 43.8598 -13.8419
27 1 -18.5567 43.4802 -13.6543
28 1 -18.3214 44.177 -12.9845
29 1 -17.6151 44.3411 -12.2805
36 1 -16.0984 44.4492 -13.555
35 1 -15.4425 43.928 -14.1039
30 1 -17.3033 43.4093 -12.3054
31 1 -16.55 42.7981 -12.3812
33 1 -14.9059 42.9409 -13.1526
32 1 -15.7049 42.6645 -12.7077
34 1 -15.6827 43.1368 -13.6436
ITEM: TIMESTEP
5300000
ITEM: NUMBER OF ATOMS
100
ITEM: BOX BOUNDS ff ff ff
-5.0000000000000000e+01 5.0000000000000000e+01
-5.0000000000000000e+01 5.0000000000000000e+01
-5.0000000000000000e+01 5.0000000000000000e+01
ITEM: ATOMS id type x y z
180 1 -1.71826 -4.14043 -29.6349
179 1 -1.38075 -3.22764 -29.4289
177 1 -0.895098 -3.7069 -30.7849
178 1 -1.01783 -2.95594 -30.2229
169 1 1.77405 -3.27255 -30.6454
181 1 -2.23422 -4.72342 -28.9772
182 1 -1.74785 -4.30894 -28.2602
176 1 -0.482243 -4.29506 -31.4133
175 1 -1.19393 -3.82887 -31.84
174 1 -0.619954 -3.42016 -32.5099
173 1 -0.0260206 -2.70013 -32.3675
172 1 0.398082 -3.37452 -31.8789
171 1 0.763418 -3.04262 -31.0433
170 1 1.52398 -2.46482 -31.1654
168 1 2.33759 -3.73541 -29.9924
167 1 2.48272 -4.04952 -30.9192
184 1 -2.77335 -3.25873 -27.8138
183 1 -2.63692 -4.14218 -27.8691
185 1 -2.60821 -2.73471 -27.0045
186 1 -3.3543 -2.88488 -26.443
165 1 3.62951 -4.63594 -31.5074
166 1 2.69883 -4.52648 -31.7952
164 1 4.43919 -4.1674 -31.8449
155 1 -0.72505 -6.17767 -29.394
190 1 -4.72977 -4.90225 -24.9346
189 1 -3.81432 -4.72847 -24.8069
191 1 -4.77559 -5.82995 -24.923
151 1 -0.997675 -5.37675 -27.0458
153 1 -0.825899 -5.38669 -28.1511
152 1 -0.948223 -4.597 -27.5985
156 1 0.185214 -6.23157 -29.0227
159 1 2.60228 -5.56185 -29.3046
157 1 0.769328 -5.86216 -29.801
187 1 -3.73714 -3.13333 -25.5641
188 1 -4.14609 -3.81904 -25.061
161 1 4.31836 -5.1049 -29.5178
160 1 3.56834 -5.54778 -29.1235
162 1 4.64767 -4.45352 -30.1811
163 1 4.7655 -3.91233 -30.9895
192 1 -3.90611 -5.82531 -24.486
193 1 -3.08841 -5.68958 -24.8759
195 1 -2.09363 -4.75533 -24.87
199 1 -0.025781 -5.22372 -26.1058
200 1 -0.0668644 -5.03701 -27.0417
154 1 -0.869849 -5.24959 -29.1335
158 1 1.69124 -5.85091 -29.4631
194 1 -2.13554 -5.71638 -25.133
198 1 -0.0991607 -4.86022 -25.2309
197 1 -0.325913 -4.07208 -24.8339
196 1 -1.1903 -4.37691 -24.8259
11 1 -10.3064 34.297 -13.5043
13 1 -9.06282 34.7093 -14.1541
12 1 -9.75124 35.0025 -13.4517
15 1 -8.68985 35.7084 -12.7598
14 1 -8.76409 35.3917 -13.6087
16 1 -9.49613 36.1472 -13.1119
8 1 -12.2046 33.6779 -13.4063
7 1 -12.7112 34.4103 -13.7703
9 1 -11.5767 34.1588 -12.8566
10 1 -10.9664 33.6356 -13.355
19 1 -9.95237 36.6364 -11.3252
17 1 -9.81434 35.6347 -12.3784
18 1 -9.41853 35.8249 -11.5216
28 1 -5.94985 37.9231 -11.8393
6 1 -12.3932 34.629 -14.6477
5 1 -12.3732 35.5313 -15.0425
20 1 -9.51276 37.4254 -11.8212
31 1 -4.54571 39.1859 -9.8925
21 1 -9.15661 37.2006 -12.6599
22 1 -8.57018 37.6455 -13.361
24 1 -7.55969 37.306 -13.7683
29 1 -5.47609 38.6319 -11.3778
30 1 -4.93628 38.5534 -10.5566
23 1 -8.37368 36.8659 -13.9043
25 1 -6.97455 37.3801 -12.9984
26 1 -6.69687 38.2433 -12.6079
27 1 -5.74015 38.5512 -12.5211
3 1 -12.5898 36.6572 -13.3983
50 1 -12.349 36.2985 -11.6209
2 1 -11.9703 36.0971 -12.8956
49 1 -11.4107 36.1792 -11.5642
4 1 -12.7184 36.0102 -14.182
33 1 -5.07074 38.4557 -8.80521
32 1 -4.30248 39.0772 -8.9337
1 1 -12.7272 35.9346 -12.3896
47 1 -11.3483 34.6632 -11.1689
44 1 -9.40372 35.0882 -9.68622
45 1 -9.82635 35.2493 -10.546
35 1 -5.30669 36.8741 -8.77088
36 1 -5.47154 36.1046 -8.16183
37 1 -6.37299 36.2384 -7.97338
34 1 -5.03693 37.6166 -8.23297
48 1 -10.9682 35.2614 -11.7752
46 1 -10.5434 34.5624 -10.6948
43 1 -9.78817 34.4936 -9.06389
42 1 -8.93704 34.599 -8.58042
38 1 -7.31381 36.0551 -8.05944
40 1 -7.93999 34.8563 -7.86395
39 1 -7.07006 35.1157 -8.21518
41 1 -8.11174 35.1753 -8.73774
ITEM: TIMESTEP
5400000
ITEM: NUMBER OF ATOMS
100
ITEM: BOX BOUNDS ff ff ff
-5.0000000000000000e+01 5.0000000000000000e+01
-5.0000000000000000e+01 5.0000000000000000e+01
-5.0000000000000000e+01 5.0000000000000000e+01
ITEM: ATOMS id type x y z
155 1 20.8699 4.50639 -32.3136
156 1 21.0049 5.30789 -32.74
157 1 20.1017 5.12655 -33.0179
158 1 19.3075 5.04777 -33.5216
199 1 23.0684 3.15111 -30.1358
198 1 23.3298 3.90223 -29.6102
154 1 21.5674 4.41053 -31.7073
152 1 23.2753 3.73759 -32.2717
153 1 22.4017 4.01944 -31.9493
159 1 19.5627 5.95926 -33.7021
160 1 19.6452 6.72556 -33.1806
151 1 23.1205 2.87149 -31.7195
200 1 22.8032 2.59898 -30.8343
197 1 24.1588 3.48059 -29.3187
196 1 25.0676 3.72817 -29.6276
161 1 20.2095 6.60817 -32.3747
162 1 20.2326 6.38693 -31.3574
163 1 20.7732 5.94628 -30.6449
164 1 20.3347 5.8805 -29.7794
195 1 25.9849 3.65608 -29.3611
194 1 26.8669 3.40096 -29.1555
193 1 27.8277 3.4328 -29.0999
165 1 20.1817 5.01079 -29.3194
166 1 19.7954 5.66429 -28.8157
192 1 27.2785 3.95106 -28.4581
170 1 20.2944 7.38379 -27.3784
169 1 21.1246 6.9565 -27.7891
168 1 20.5601 6.67864 -28.649
167 1 20.0607 6.1337 -28.0294
191 1 27.3783 4.70276 -27.8544
188 1 27.0319 6.12121 -27.335
190 1 27.7636 5.42931 -27.456
189 1 27.5993 5.91086 -26.6154
175 1 19.6475 5.30042 -24.9912
176 1 20.6007 5.12748 -24.8496
185 1 25.3397 6.91858 -26.6656
172 1 20.3044 7.29632 -25.4936
171 1 20.347 7.61435 -26.4099
173 1 19.5876 6.75682 -25.1608
174 1 19.9086 6.06092 -24.5399
187 1 26.2391 5.71055 -26.9489
186 1 26.0465 6.56557 -27.2771
177 1 21.2391 5.00383 -24.1272
178 1 21.9173 4.38667 -23.7477
179 1 22.8235 4.63219 -23.664
180 1 23.197 4.89298 -24.4912
182 1 24.6705 5.67533 -25.2582
184 1 24.9316 6.33615 -25.9897
183 1 25.3163 5.45991 -25.8884
181 1 23.7828 5.30271 -25.198
43 1 -18.2048 31.1001 -10.1883
44 1 -18.7133 30.6513 -10.8576
45 1 -19.3763 30.1938 -10.3699
46 1 -20.1675 30.5999 -10.284
40 1 -16.5126 31.5428 -10.4644
41 1 -17.3326 30.9014 -10.5618
39 1 -15.6849 31.9416 -10.8834
42 1 -18.0264 31.3178 -11.1175
37 1 -15.6617 31.2633 -12.2511
26 1 -11.3513 36.2545 -11.7901
25 1 -11.4268 35.7614 -10.9195
22 1 -10.4202 34.383 -9.82025
24 1 -10.4838 35.4442 -11.0064
23 1 -10.2633 35.3651 -10.07
47 1 -19.8574 31.185 -9.5577
48 1 -19.5338 32.0126 -9.90012
38 1 -16.2079 31.956 -11.7938
4 1 -17.2541 34.9431 -8.72546
34 1 -14.4031 32.7367 -12.8071
35 1 -15.2715 32.9356 -12.4724
3 1 -16.7683 34.143 -9.04259
36 1 -15.3261 32.0271 -12.7565
33 1 -14.0848 33.4572 -13.3617
32 1 -13.2973 33.3483 -12.84
31 1 -12.9177 34.0856 -12.4086
29 1 -13.282 35.74 -11.7829
30 1 -12.7808 34.9286 -11.9302
20 1 -10.5829 34.0534 -8.22681
28 1 -12.6539 36.0232 -12.4592
27 1 -12.2773 36.1613 -11.6127
21 1 -10.289 34.6818 -8.90785
19 1 -10.6399 34.9356 -7.84985
50 1 -18.2002 32.3419 -8.63282
49 1 -18.8467 32.1241 -9.29207
1 1 -17.6436 33.0208 -9.03506
2 1 -16.9057 33.3956 -9.54456
5 1 -16.5561 35.5783 -8.66689
6 1 -16.9575 35.5944 -7.83714
7 1 -16.6783 34.7152 -7.60451
8 1 -17.082 34.5297 -6.77649
9 1 -16.7637 35.3672 -6.50497
17 1 -11.4367 36.197 -8.22763
15 1 -12.5617 36.8036 -8.00961
18 1 -10.5306 35.8944 -7.89206
16 1 -11.8972 36.3362 -7.45038
10 1 -15.8086 35.6679 -6.38171
11 1 -15.6971 36.2549 -7.1029
12 1 -14.9827 36.4488 -7.78081
13 1 -14.212 36.1619 -8.1559
14 1 -13.2809 36.1319 -7.8841
ITEM: TIMESTEP
5500000
ITEM: NUMBER OF ATOMS
100
ITEM: BOX BOUNDS ff ff ff
-5.0000000000000000e+01 5.0000000000000000e+01
-5.0000000000000000e+01 5.0000000000000000e+01
-5.0000000000000000e+01 5.0000000000000000e+01
ITEM: ATOMS id type x y z
158 1 10.3943 -9.56359 -21.3762
159 1 10.9455 -8.84918 -21.0592
168 1 16.6272 -7.2517 -21.2101
157 1 10.6352 -9.8708 -20.4896
156 1 11.0266 -9.9472 -19.5759
160 1 11.8123 -8.84893 -20.5762
161 1 12.3558 -8.47597 -21.1862
162 1 13.2079 -8.81265 -21.4784
172 1 15.5343 -9.17969 -20.7494
171 1 15.1294 -8.42657 -21.1055
166 1 15.6705 -6.60501 -19.9378
165 1 15.1544 -7.39732 -19.9644
164 1 14.4486 -7.56591 -20.6603
169 1 16.5559 -7.74216 -20.4325
170 1 16.0836 -8.22545 -21.1526
167 1 15.8725 -7.02216 -20.7262
192 1 13.0585 -12.8002 -17.5246
194 1 13.5559 -11.3238 -17.7471
195 1 13.7515 -11.4757 -16.7929
174 1 15.6489 -10.674 -19.582
155 1 11.7408 -9.28027 -19.2685
154 1 11.5994 -8.34309 -19.6596
173 1 15.4634 -9.91326 -20.1415
163 1 13.948 -8.36493 -21.0626
26 1 -12.6785 33.2885 -18.8662
25 1 -13.0494 33.8079 -18.1956
27 1 -11.8752 33.021 -19.355
28 1 -10.991 33.0519 -19.6651
31 1 -10.9334 33.0118 -16.957
29 1 -10.8699 33.147 -18.6893
30 1 -10.6842 33.2503 -17.8156
189 1 12.6597 -14.4147 -17.2886
190 1 11.8225 -13.9759 -17.6624
187 1 13.3775 -14.0271 -16.1002
186 1 14.1559 -13.556 -16.5407
185 1 14.5999 -12.8054 -16.29
191 1 12.5512 -13.4511 -18.094
193 1 12.8096 -11.8808 -17.45
184 1 15.4145 -13.0582 -15.9916
183 1 16.0798 -13.7456 -16.1284
196 1 14.4834 -10.9108 -17.1062
197 1 14.1976 -10.3855 -17.7664
182 1 16.9577 -13.7289 -15.6573
181 1 17.0855 -13.7444 -16.6088
179 1 16.1813 -13.7588 -18.1109
152 1 12.4616 -7.84405 -18.4808
178 1 15.4014 -13.4304 -18.5611
176 1 15.1062 -12.1398 -18.414
177 1 15.406 -12.7021 -19.1865
175 1 15.4275 -11.3003 -18.8427
153 1 12.1342 -7.57972 -19.3105
19 1 -15.1784 36.6608 -17.2425
20 1 -14.2315 36.7249 -17.3393
22 1 -13.8759 35.0059 -17.2321
21 1 -14.5 35.761 -17.3032
35 1 -11.5347 33.8267 -15.3631
18 1 -15.498 35.8212 -17.5299
24 1 -13.0938 33.7117 -17.2923
23 1 -13.0494 34.6312 -16.8977
32 1 -11.6607 33.2787 -17.4662
34 1 -12.3423 33.541 -15.7871
33 1 -11.8134 33.7197 -16.5509
188 1 13.6514 -14.4037 -17.0048
198 1 14.4668 -9.44506 -17.9252
199 1 14.51 -9.77075 -18.8683
180 1 16.6668 -14.0583 -17.3892
151 1 13.1217 -8.41099 -18.9716
200 1 13.7725 -9.0855 -18.9794
17 1 -15.9843 35.2563 -16.9557
16 1 -16.8356 34.9069 -16.785
15 1 -16.3914 34.3343 -16.1646
36 1 -11.8753 34.7664 -15.4833
37 1 -11.4635 35.1049 -16.2552
45 1 -12.9989 36.7595 -14.8722
14 1 -15.7186 34.1971 -15.4793
13 1 -15.0574 34.8199 -15.7961
12 1 -14.36 34.4465 -15.3356
38 1 -11.4305 36.0331 -16.0043
40 1 -10.3666 36.7337 -15.5898
39 1 -10.4943 35.8009 -15.7891
42 1 -11.1407 37.5355 -15.4471
43 1 -11.8737 37.5818 -16.1527
44 1 -12.5221 37.0574 -15.6536
48 1 -14.2466 36.0729 -15.0265
47 1 -13.498 36.3333 -15.6379
46 1 -12.8475 35.8331 -15.2383
7 1 -14.1065 34.7822 -13.2995
9 1 -13.656 34.474 -14.6205
8 1 -14.458 34.8884 -14.2161
11 1 -13.5948 33.7932 -15.5955
10 1 -13.4242 33.4948 -14.7293
41 1 -10.2108 37.6891 -15.7009
1 1 -14.6742 36.518 -13.1106
50 1 -15.276 36.6482 -13.8692
49 1 -14.8491 35.8474 -14.2708
6 1 -13.8805 34.6808 -12.3249
3 1 -16.1311 35.5714 -12.6341
5 1 -14.8278 34.6338 -12.2307
4 1 -15.3868 35.3842 -12.0305
2 1 -15.6455 36.3759 -12.9299
ITEM: TIMESTEP
5600000
ITEM: NUMBER OF ATOMS
100
ITEM: BOX BOUNDS ff ff ff
-5.0000000000000000e+01 5.0000000000000000e+01
-5.0000000000000000e+01 5.0000000000000000e+01
-5.0000000000000000e+01 5.0000000000000000e+01
ITEM: ATOMS id type x y z
194 1 11.3362 -9.51347 -22.3824
191 1 9.04338 -10.8248 -21.5826
192 1 9.77871 -10.1649 -21.4759
193 1 10.711 -9.91265 -21.7255
188 1 8.14509 -12.513 -19.9046
195 1 12.1619 -9.87226 -22.3751
197 1 11.5069 -11.1874 -21.2519
196 1 11.5759 -10.3676 -21.699
198 1 11.5621 -11.1081 -20.2458
199 1 11.8559 -10.2111 -20.6403
186 1 9.2301 -12.3476 -19.2961
189 1 8.30899 -11.5967 -20.2654
187 1 8.31567 -12.443 -18.9834
190 1 8.71407 -11.555 -21.0944
185 1 9.35933 -13.0487 -19.9952
151 1 12.523 -9.25185 -20.0679
200 1 11.6896 -9.73388 -19.7587
152 1 13.0497 -9.06239 -19.2752
184 1 10.0257 -13.052 -19.2356
183 1 10.8372 -12.5955 -19.1375
153 1 13.3905 -9.86062 -18.822
154 1 13.4364 -10.3149 -17.9638
5 1 -18.5624 40.827 -14.2986
174 1 15.1639 -13.053 -17.5661
173 1 15.5921 -13.7773 -17.1869
172 1 15.7058 -13.5985 -16.2786
171 1 16.2954 -13.2666 -15.6327
169 1 16.5586 -12.9921 -14.15
170 1 16.3326 -12.498 -14.9142
168 1 16.4558 -12.4893 -13.3501
175 1 14.7925 -12.8959 -18.4386
165 1 16.198 -10.8727 -14.8244
164 1 17.0088 -10.3032 -14.9675
182 1 11.737 -13.0221 -19.2912
180 1 12.1109 -11.8825 -18.1636
181 1 11.7254 -12.6768 -18.4093
163 1 16.7822 -10.6117 -15.844
162 1 16.2754 -10.531 -16.7175
156 1 13.892 -10.384 -16.9379
155 1 12.9542 -10.2323 -17.1458
157 1 13.9668 -9.78313 -16.1354
158 1 14.48 -9.31709 -16.7729
161 1 15.6573 -10.4022 -17.3895
159 1 15.1885 -8.72002 -17.1055
160 1 15.8315 -9.41013 -17.3513
50 1 -19.5048 37.3274 -15.1409
49 1 -19.5758 36.4127 -14.7455
2 1 -18.8388 38.8082 -14.9982
1 1 -19.5681 38.1813 -14.8261
3 1 -19.005 39.0821 -14.1359
4 1 -19.1154 40.0503 -14.3623
7 1 -17.2213 39.6601 -14.3229
8 1 -16.6869 39.296 -13.6387
6 1 -18.0338 40.0459 -14.6276
177 1 13.9211 -11.3317 -18.6622
176 1 14.6226 -12.0087 -18.6729
167 1 15.9124 -11.7021 -13.5379
166 1 16.6284 -11.3237 -14.1333
179 1 12.8502 -12.5121 -18.175
178 1 13.0142 -11.7107 -18.6534
47 1 -19.3556 35.4039 -14.028
48 1 -18.8262 35.8162 -14.7854
46 1 -19.0695 35.3759 -13.1037
45 1 -19.2073 36.2815 -12.9772
9 1 -17.2591 40.0813 -13.3775
11 1 -16.3368 39.9283 -11.7304
14 1 -13.8647 38.8732 -11.7671
10 1 -16.8814 40.2087 -12.4873
44 1 -19.6486 35.7221 -12.3652
42 1 -18.4821 35.3774 -11.4742
43 1 -19.0645 35.0727 -12.0989
15 1 -13.4556 39.4422 -11.1065
16 1 -13.8845 39.303 -10.2301
12 1 -15.551 39.4593 -11.7059
13 1 -14.7946 38.8475 -11.6246
39 1 -18.2725 36.9049 -12.354
41 1 -17.7704 35.9876 -11.3177
40 1 -17.5302 36.2881 -12.3125
17 1 -14.0621 38.4681 -9.74718
18 1 -14.6623 37.8322 -10.112
19 1 -15.0901 37.8169 -9.17812
20 1 -14.2773 37.8532 -8.7317
29 1 -17.1675 38.2118 -7.70039
22 1 -14.6727 36.81 -9.45457
37 1 -17.5575 37.8275 -12.3045
38 1 -17.629 37.2799 -13.0738
36 1 -18.5318 38.1351 -12.413
35 1 -18.2431 38.2106 -11.4856
24 1 -16.2085 37.2442 -10.3282
21 1 -13.88 37.3136 -9.43546
31 1 -18.7751 38.6663 -8.69689
30 1 -18.08 38.1658 -8.25173
32 1 -19.0834 38.2541 -9.48704
23 1 -15.5088 36.6142 -9.92071
25 1 -16.2369 37.2595 -9.39051
28 1 -16.55 37.7421 -7.19457
27 1 -15.884 37.3891 -7.82065
34 1 -18.9545 38.4533 -10.915
33 1 -19.6777 38.5647 -10.1558
26 1 -16.5218 37.1134 -8.50287
ITEM: TIMESTEP
5700000
ITEM: NUMBER OF ATOMS
100
ITEM: BOX BOUNDS ff ff ff
-5.0000000000000000e+01 5.0000000000000000e+01
-5.0000000000000000e+01 5.0000000000000000e+01
-5.0000000000000000e+01 5.0000000000000000e+01
ITEM: ATOMS id type x y z
155 1 15.9808 -17.3043 -12.5146
154 1 15.8506 -16.9731 -11.5711
156 1 16.1619 -16.3705 -12.7325
157 1 16.5465 -15.7773 -13.3584
158 1 16.7539 -15.4093 -14.2819
159 1 16.6745 -14.5676 -13.7654
160 1 17.5125 -14.6113 -13.2448
161 1 18.2703 -14.2912 -12.7248
35 1 -14.1209 41.7805 -10.3352
33 1 -14.0591 40.0394 -9.70128
34 1 -14.3912 40.8914 -10.0388
48 1 -14.6297 47.2225 -14.0287
49 1 -14.9923 47.3716 -13.1482
47 1 -14.3616 46.3142 -14.1459
2 1 -14.4692 46.5758 -11.1739
174 1 18.1523 -16.5484 -8.83839
172 1 18.6106 -15.3785 -8.78577
173 1 17.799 -15.7403 -9.00058
170 1 19.9463 -15.6252 -8.7226
171 1 19.349 -14.8983 -8.41549
198 1 15.5085 -13.5302 -9.39209
199 1 15.3563 -13.9742 -10.2289
152 1 15.4594 -15.9033 -12.0385
153 1 14.9393 -16.7983 -11.865
168 1 21.6307 -15.541 -8.93614
167 1 21.7483 -16.3073 -9.51757
169 1 20.7092 -15.2156 -9.07282
197 1 14.6481 -13.2936 -9.87657
162 1 19.1367 -14.2709 -12.4124
164 1 19.7185 -15.4454 -11.083
165 1 20.7206 -15.5461 -10.9416
166 1 21.2658 -16.0533 -10.354
163 1 19.2777 -14.9783 -11.848
36 1 -14.9541 41.6398 -10.7881
32 1 -13.5755 39.7649 -8.92168
37 1 -15.6167 42.3828 -10.8518
38 1 -15.2584 42.4385 -9.99065
42 1 -16.2774 44.8533 -11.2176
44 1 -16.2259 45.4469 -12.3647
50 1 -14.6489 47.9366 -12.4541
7 1 -11.5678 45.7924 -11.5302
8 1 -12.3821 45.2507 -11.5539
15 1 -8.74444 46.099 -11.0716
46 1 -14.8099 46.1593 -13.3025
45 1 -15.6324 45.6512 -13.1443
1 1 -14.703 47.3233 -11.6494
4 1 -13.0242 46.2511 -12.113
3 1 -13.8989 46.0134 -11.7514
5 1 -12.939 46.9893 -11.556
6 1 -12.1736 46.4841 -11.1837
175 1 18.0202 -17.3673 -9.33908
176 1 18.1457 -17.9454 -8.59284
200 1 15.3031 -14.9558 -10.3835
151 1 15.4384 -15.5648 -11.1308
196 1 13.982 -13.9849 -10.0632
195 1 14.6921 -14.3037 -9.46897
39 1 -15.8771 43.1549 -10.0026
31 1 -13.167 40.4224 -8.40817
30 1 -13.5096 41.3076 -8.436
29 1 -13.1229 41.8389 -9.10841
40 1 -15.7614 43.8021 -10.6634
41 1 -15.5013 44.3441 -11.3889
27 1 -12.0042 42.9348 -8.60691
10 1 -11.2024 44.8634 -12.6699
11 1 -10.8154 45.0084 -11.8236
12 1 -10.926 44.4732 -10.9981
13 1 -9.96951 44.6863 -11.0236
43 1 -16.3321 44.5183 -12.1148
9 1 -12.0622 44.8784 -12.3475
14 1 -9.62602 45.6323 -11.0582
16 1 -8.48589 45.3068 -10.4307
177 1 18.7691 -17.6975 -7.89704
179 1 18.1533 -19.1017 -6.63677
178 1 18.5945 -18.4637 -7.19863
190 1 15.8584 -15.771 -7.83331
191 1 15.8827 -16.2283 -8.65078
189 1 16.0764 -16.6564 -7.74302
194 1 14.5568 -14.9546 -8.77878
193 1 15.3592 -14.6603 -8.19729
192 1 15.5934 -15.2937 -8.87975
28 1 -12.2513 42.2002 -9.14481
26 1 -12.8231 43.5007 -8.65939
25 1 -13.3692 44.3393 -8.7582
24 1 -13.016 45.233 -8.80058
23 1 -12.1397 45.0878 -9.1636
22 1 -11.319 45.4162 -8.78298
21 1 -10.43 45.3491 -8.39951
19 1 -9.93887 45.5222 -9.4489
17 1 -8.26437 45.7447 -9.57941
18 1 -9.0633 45.5133 -9.16266
183 1 18.5779 -16.67 -5.66961
181 1 18.5784 -17.8277 -6.25584
182 1 19.192 -17.3403 -5.76355
180 1 18.5198 -18.6805 -5.85933
186 1 16.782 -17.0083 -6.13317
187 1 16.1725 -17.203 -6.87201
188 1 16.2689 -16.2855 -6.80423
20 1 -10.006 44.6545 -8.9887
185 1 17.6532 -16.6152 -6.19149
184 1 17.8095 -17.1869 -5.40963
ITEM: TIMESTEP
5800000
ITEM: NUMBER OF ATOMS
100
ITEM: BOX BOUNDS ff ff ff
-5.0000000000000000e+01 5.0000000000000000e+01
-5.0000000000000000e+01 5.0000000000000000e+01
-5.0000000000000000e+01 5.0000000000000000e+01
ITEM: ATOMS id type x y z
166 1 15.8508 -17.0922 -12.592
168 1 16.3814 -15.7133 -12.0182
167 1 16.6673 -16.4923 -12.4806
169 1 15.7205 -14.972 -11.95
171 1 14.5882 -14.0488 -12.1137
170 1 14.9144 -14.7601 -11.4544
174 1 16.6594 -12.9604 -12.1545
165 1 15.8571 -17.0842 -13.5678
164 1 16.5572 -17.4432 -14.0905
172 1 15.3605 -13.5441 -11.8425
173 1 16.2951 -13.7808 -11.8598
176 1 15.7287 -12.1246 -12.3754
175 1 16.756 -12.1834 -12.6354
177 1 15.2383 -12.1251 -13.1766
178 1 15.0536 -11.1473 -13.3406
12 1 -15.9508 40.0221 -12.0904
13 1 -15.2416 39.3845 -12.1722
15 1 -13.9561 38.6478 -11.5657
14 1 -14.4964 38.7718 -12.3341
17 1 -13.0265 39.0294 -9.98069
16 1 -13.4415 38.8159 -10.8067
160 1 17.9218 -19.4821 -13.4296
159 1 17.2364 -20.0877 -13.0985
163 1 17.4844 -17.7836 -14.0653
162 1 17.7841 -18.4818 -13.4186
161 1 17.9445 -18.9055 -14.2633
187 1 10.8786 -14.6772 -12.773
188 1 11.0714 -14.7779 -11.8777
185 1 11.8574 -13.919 -13.5156
186 1 10.889 -13.965 -13.4871
184 1 11.9553 -13.901 -14.4694
182 1 13.2288 -12.9556 -14.2451
183 1 12.2521 -13.0282 -14.6532
179 1 14.4509 -11.3583 -14.024
181 1 13.7419 -12.1064 -14.5376
180 1 14.1457 -11.2726 -14.9114
11 1 -16.5155 39.7502 -12.8389
10 1 -17.1611 39.3516 -12.211
19 1 -12.6887 40.0857 -10.4267
18 1 -12.1954 39.4329 -9.89751
20 1 -12.7385 41.0358 -10.3865
157 1 16.2356 -20.259 -12.7434
156 1 16.6697 -20.8885 -12.1684
155 1 16.188 -20.404 -11.4087
158 1 16.5904 -19.4129 -13.0483
154 1 15.4748 -19.8204 -11.5327
153 1 15.7864 -19.2359 -10.8216
189 1 10.1256 -14.6364 -11.8745
190 1 10.3268 -15.2171 -11.1268
192 1 12.1023 -15.3458 -10.7865
191 1 11.1403 -15.2815 -10.7138
193 1 12.3116 -15.7974 -11.6135
194 1 12.1575 -16.7295 -11.3099
151 1 15.7426 -18.6685 -9.91506
152 1 15.0327 -19.1474 -10.292
2 1 -15.4168 38.982 -9.44215
3 1 -15.8592 39.8557 -9.14631
6 1 -16.0197 39.1827 -11.1959
5 1 -15.5389 39.4958 -10.4236
4 1 -16.3276 39.4237 -9.90597
9 1 -17.0559 38.7651 -13.0234
8 1 -17.1878 38.4032 -12.0938
7 1 -16.2903 38.637 -11.992
28 1 -12.1876 42.996 -8.32864
29 1 -12.0502 42.1003 -8.70528
22 1 -12.6243 42.1081 -10.9247
21 1 -11.9855 41.4339 -10.7782
25 1 -10.5527 42.9581 -10.0158
27 1 -11.5528 43.6728 -8.58267
195 1 12.8429 -17.4119 -11.2054
196 1 13.6427 -17.0684 -11.5934
199 1 15.8586 -17.3904 -10.2144
200 1 15.15 -17.9045 -9.89055
198 1 15.3402 -17.5382 -11.0177
50 1 -14.0355 39.1345 -8.85314
1 1 -14.666 38.4175 -9.08845
49 1 -14.4814 39.5882 -9.6247
48 1 -13.7453 40.0022 -9.96196
47 1 -13.7125 40.2804 -9.05326
46 1 -13.4989 40.6206 -8.14486
24 1 -11.4997 42.5686 -9.83224
30 1 -11.6991 41.8835 -7.82737
31 1 -10.742 41.908 -7.96018
23 1 -12.3595 42.755 -10.1968
26 1 -11.0473 43.5233 -9.43392
197 1 14.5267 -17.1259 -11.1773
44 1 -13.9874 40.4656 -7.01521
43 1 -14.5479 40.3711 -6.25177
45 1 -13.1148 40.3311 -7.34025
32 1 -10.1331 41.1299 -8.18002
42 1 -14.3724 39.9673 -5.44878
41 1 -14.6368 39.9978 -4.5075
39 1 -13.401 40.3118 -4.72643
38 1 -13.1721 40.682 -5.5646
37 1 -12.4001 40.2004 -5.16649
40 1 -14.0053 40.4813 -3.98434
36 1 -12.0988 39.9524 -6.12029
35 1 -11.4961 39.8356 -6.87385
34 1 -11.1456 40.633 -7.1956
33 1 -11.0239 40.8461 -8.09606
ITEM: TIMESTEP
5900000
ITEM: NUMBER OF ATOMS
100
ITEM: BOX BOUNDS ff ff ff
-5.0000000000000000e+01 5.0000000000000000e+01
-5.0000000000000000e+01 5.0000000000000000e+01
-5.0000000000000000e+01 5.0000000000000000e+01
ITEM: ATOMS id type x y z
24 1 -15.787 24.1246 -19.7033
25 1 -14.8968 24.1725 -19.1112
26 1 -14.3607 25.0722 -19.1412
27 1 -13.8226 24.8724 -19.931
23 1 -15.3368 23.7504 -20.4941
22 1 -16.1701 23.7333 -21.0834
28 1 -13.0426 25.4121 -19.7177
29 1 -12.9876 26.3835 -19.5305
31 1 -11.8005 26.7595 -19.8304
30 1 -12.1179 25.9018 -19.4459
32 1 -12.2774 27.1732 -20.5322
33 1 -13.1826 27.3806 -20.4349
21 1 -15.8911 24.6033 -21.4115
20 1 -15.7819 25.5694 -21.5385
1 1 -18.957 28.4186 -17.422
50 1 -18.3086 27.6362 -17.4756
34 1 -13.5353 27.2192 -19.5142
35 1 -13.8283 27.0073 -18.6502
49 1 -17.705 28.3854 -17.6656
48 1 -17.1437 27.6472 -17.9497
18 1 -15.6114 26.5169 -21.2566
17 1 -15.3741 26.7978 -20.4177
15 1 -15.9004 27.4306 -19.1503
19 1 -16.2498 25.9149 -20.7923
13 1 -16.2472 26.5869 -17.5404
14 1 -16.0921 27.2712 -18.24
12 1 -17.2174 26.3987 -17.5923
4 1 -20.0246 29.2232 -16.1313
3 1 -20.1194 29.3555 -17.0613
2 1 -19.6304 28.8496 -17.881
36 1 -13.9501 28.0176 -18.8138
37 1 -13.9468 28.2169 -17.9043
38 1 -14.0768 29.0372 -18.3193
47 1 -17.4627 28.0553 -18.7632
46 1 -17.4667 28.99 -18.8702
172 1 24.0823 -16.0441 -14.0206
177 1 24.7019 -16.4015 -16.511
179 1 24.6139 -17.7755 -17.1544
171 1 24.4307 -15.3321 -14.5033
178 1 25.0714 -17.272 -16.488
167 1 22.7792 -15.2522 -15.6904
166 1 21.8537 -15.2983 -16.1531
165 1 22.1692 -14.3898 -16.3169
16 1 -15.0651 27.3297 -19.6898
11 1 -17.93 26.4229 -16.7879
10 1 -18.0427 25.5088 -17.0957
5 1 -20.0885 28.5274 -15.4861
6 1 -20.4691 27.7463 -15.9018
42 1 -15.9056 31.2102 -19.206
39 1 -14.7038 29.6326 -18.697
45 1 -17.0928 29.5942 -19.6452
44 1 -16.5348 30.387 -19.635
43 1 -16.7273 31.3346 -19.6961
40 1 -14.8724 30.6458 -18.6273
41 1 -14.9808 31.5132 -19.0006
182 1 24.9355 -17.9792 -15.3739
174 1 22.931 -16.2222 -15.5643
175 1 23.6883 -15.7302 -15.9803
173 1 23.5819 -16.0833 -14.8763
180 1 24.0228 -17.9152 -16.46
181 1 24.6307 -18.6381 -16.0737
170 1 24.5216 -14.5933 -15.2164
176 1 23.7712 -16.2875 -16.7595
168 1 23.5066 -14.7375 -15.4833
169 1 23.8387 -13.921 -15.0044
164 1 22.1819 -13.689 -15.6845
163 1 22.9562 -13.1987 -15.22
162 1 23.4011 -12.7249 -14.5189
7 1 -19.5862 27.5208 -16.3474
8 1 -19.2093 26.7289 -16.7605
9 1 -18.7894 26.1966 -17.3894
184 1 24.1364 -18.8024 -13.9992
183 1 24.2274 -18.0297 -14.6598
160 1 23.0841 -12.427 -13.0559
161 1 23.5254 -12.0993 -13.8596
188 1 24.1228 -20.7794 -11.4028
189 1 24.1119 -19.8898 -11.0771
187 1 24.2763 -20.4543 -12.2779
190 1 23.3476 -19.4727 -10.5888
186 1 23.8341 -20.3061 -13.1434
191 1 23.922 -18.8595 -10.0536
185 1 24.1517 -19.4529 -13.2887
192 1 24.7553 -18.6033 -10.3219
159 1 23.8826 -12.8031 -12.5978
157 1 25.476 -13.4695 -12.9445
158 1 24.5528 -13.3881 -12.8478
154 1 27.7286 -13.9374 -12.5459
151 1 28.1559 -16.4188 -11.8767
156 1 26.1587 -13.1606 -12.3355
155 1 26.95 -13.5574 -12.0518
153 1 28.2125 -14.5413 -11.9904
194 1 26.6071 -18.9779 -10.6581
193 1 25.674 -18.9273 -10.4699
195 1 27.0393 -19.2229 -11.4324
198 1 26.797 -17.1069 -12.0906
199 1 26.4521 -16.3897 -11.561
152 1 27.9763 -15.4685 -12.0061
200 1 27.3893 -16.3584 -11.3449
196 1 26.043 -18.8545 -11.5637
197 1 26.4659 -18.0331 -11.7326
ITEM: TIMESTEP
6000000
ITEM: NUMBER OF ATOMS
100
ITEM: BOX BOUNDS ff ff ff
-5.0000000000000000e+01 5.0000000000000000e+01
-5.0000000000000000e+01 5.0000000000000000e+01
-5.0000000000000000e+01 5.0000000000000000e+01
ITEM: ATOMS id type x y z
195 1 10.6577 -17.0768 -22.6147
191 1 11.6259 -13.8269 -21.5762
194 1 11.0538 -16.385 -22.0831
190 1 11.0973 -13.0123 -21.6394
151 1 11.8326 -18.1029 -20.8551
200 1 11.7458 -17.1709 -20.4346
198 1 12.2859 -17.2155 -21.3985
199 1 11.3343 -17.0154 -21.3226
197 1 12.137 -17.6649 -22.1816
196 1 11.245 -17.6827 -22.2461
193 1 11.4919 -15.559 -22.3245
192 1 11.3506 -14.667 -22.0017
188 1 11.8032 -12.051 -20.4221
189 1 11.2925 -12.7701 -20.7265
153 1 10.2716 -18.0974 -20.8094
152 1 11.0698 -18.0765 -20.2399
183 1 10.2289 -12.1554 -18.4763
185 1 10.8419 -13.1246 -19.2698
186 1 11.7687 -13.0301 -19.6371
187 1 12.3996 -12.2842 -19.6693
157 1 11.4844 -17.8448 -19.0987
156 1 10.5361 -18.3086 -19.0177
155 1 10.072 -18.2613 -19.8369
154 1 10.0467 -18.9757 -20.4973
179 1 7.63958 -14.0725 -17.8692
184 1 10.6628 -12.2711 -19.3223
180 1 8.49804 -13.623 -17.9731
181 1 9.22829 -13.744 -18.5996
182 1 9.48266 -12.775 -18.6393
158 1 12.2731 -17.4477 -19.4623
159 1 12.4757 -16.6018 -18.9871
160 1 11.5525 -16.8122 -18.9625
173 1 8.92962 -16.4641 -15.7187
161 1 11.0464 -15.9785 -18.6444
174 1 8.97852 -16.1338 -16.6729
176 1 8.9115 -15.5697 -18.1839
178 1 7.97463 -14.6518 -18.597
177 1 8.41711 -14.8339 -17.7531
172 1 8.84576 -17.0788 -15.0119
171 1 9.77533 -17.4726 -15.0375
170 1 9.49364 -17.9159 -15.8531
162 1 11.3339 -15.5601 -17.7772
175 1 8.73628 -16.3114 -17.5554
168 1 10.5593 -17.5579 -16.4592
165 1 10.312 -16.0638 -16.1025
167 1 11.2567 -17.1581 -15.927
164 1 10.7966 -15.8965 -16.9156
163 1 10.4777 -15.2067 -17.5278
166 1 11.2385 -16.1643 -15.8427
169 1 9.69601 -17.1229 -16.3301
3 1 -10.7758 24.7527 -11.4985
1 1 -9.52689 24.1403 -10.4526
5 1 -11.5996 24.1084 -12.8501
4 1 -11.016 24.7887 -12.4076
2 1 -9.96006 24.7965 -11.0752
50 1 -9.04638 23.6622 -9.8346
49 1 -8.19677 23.7439 -10.3038
6 1 -12.4181 24.1616 -13.1308
37 1 -5.9384 21.422 -12.6718
34 1 -7.40484 22.4693 -11.3838
38 1 -5.17209 21.9435 -12.3086
39 1 -5.208 22.4061 -13.1758
36 1 -6.19088 22.3665 -12.728
43 1 -5.28651 23.4796 -11.7167
9 1 -12.1664 24.2274 -11.6645
8 1 -12.3416 25.0762 -12.0598
47 1 -7.51506 24.3644 -9.74937
48 1 -7.87781 24.6826 -10.526
7 1 -12.9947 24.8046 -12.7132
28 1 -9.72932 23.2519 -9.10559
27 1 -10.4464 23.269 -8.47044
29 1 -9.16325 22.4435 -9.37683
32 1 -8.13872 21.6858 -10.4754
31 1 -8.51933 21.3616 -9.67134
30 1 -8.45784 21.9224 -8.87092
33 1 -7.72638 21.4946 -11.3473
35 1 -6.98204 22.2365 -12.2632
40 1 -4.56451 23.142 -13.3826
12 1 -12.2304 23.7328 -9.42848
11 1 -11.9131 23.3686 -10.2212
42 1 -4.38936 23.7537 -12.02
41 1 -4.00319 23.7723 -12.8763
10 1 -12.4541 23.5606 -10.9897
46 1 -6.76318 23.813 -9.92114
45 1 -6.92267 23.6179 -10.8696
44 1 -6.24512 23.4126 -11.471
23 1 -11.896 21.1485 -8.2151
24 1 -11.4962 21.7094 -7.60562
25 1 -10.5673 21.6487 -7.77292
26 1 -10.4519 22.5928 -7.77117
13 1 -12.9223 24.4555 -9.24504
15 1 -13.5757 22.8481 -9.7091
14 1 -13.1687 23.6886 -9.76897
19 1 -11.9106 20.2733 -10.2597
20 1 -11.9876 19.6931 -9.43077
21 1 -12.3193 19.5965 -8.55034
22 1 -12.6092 20.5261 -8.39353
17 1 -12.2903 21.542 -9.25847
18 1 -12.4721 21.0075 -10.0281
16 1 -12.9957 22.179 -9.32669
ITEM: TIMESTEP
6100000
ITEM: NUMBER OF ATOMS
100
ITEM: BOX BOUNDS ff ff ff
-5.0000000000000000e+01 5.0000000000000000e+01
-5.0000000000000000e+01 5.0000000000000000e+01
-5.0000000000000000e+01 5.0000000000000000e+01
ITEM: ATOMS id type x y z
166 1 7.85083 -19.4755 -6.8095
167 1 7.31696 -20.2812 -7.09889
165 1 8.08543 -18.546 -7.03446
164 1 8.80858 -19.0534 -6.62481
163 1 8.63857 -18.4814 -5.77986
161 1 9.17357 -17.395 -5.17301
162 1 8.47995 -17.5414 -5.81812
170 1 7.51205 -22.3648 -5.96273
168 1 7.57049 -21.2177 -6.99353
169 1 7.72258 -21.4285 -6.072
159 1 9.64522 -16.7878 -6.47777
158 1 9.80679 -16.1109 -7.15367
157 1 10.5208 -16.7099 -7.23324
160 1 9.1375 -16.6427 -5.69843
156 1 10.9167 -17.5715 -7.24209
155 1 11.7645 -17.2763 -6.91648
2 1 -19.1433 18.2653 -2.70481
176 1 9.87922 -21.8283 -2.84065
188 1 11.1489 -23.8069 -0.807943
189 1 11.0855 -22.8446 -1.17528
187 1 11.5929 -23.4436 -0.013539
171 1 8.35463 -22.9014 -6.18108
175 1 9.94794 -21.8955 -3.75878
191 1 12.0956 -22.4968 -1.74193
173 1 9.93504 -22.2899 -5.55058
172 1 8.87464 -22.4101 -5.59241
154 1 11.8428 -18.1751 -6.62812
153 1 12.7434 -18.0475 -6.4275
152 1 13.3034 -17.7012 -5.73576
151 1 13.0772 -18.0338 -4.87313
49 1 -19.3038 18.5858 -0.522292
50 1 -19.25 18.0185 -1.36011
1 1 -19.8749 17.9304 -2.1663
3 1 -18.8734 19.1616 -2.86776
4 1 -18.4409 19.838 -3.40441
7 1 -17.3116 20.2134 -4.50447
9 1 -16.3225 19.49 -5.39951
10 1 -16.2252 19.4953 -4.44718
11 1 -16.2731 18.5044 -4.39502
12 1 -15.3838 18.5751 -3.95141
13 1 -15.7997 18.2754 -3.12695
14 1 -14.8705 17.8045 -3.2642
5 1 -18.5169 20.7272 -3.12824
6 1 -18.0102 20.5281 -3.89808
177 1 9.68003 -20.9932 -3.26867
178 1 8.76779 -21.2217 -3.04449
186 1 10.9397 -23.3094 0.691681
174 1 9.64171 -22.1354 -4.60971
179 1 9.35552 -20.9063 -2.38498
190 1 11.2012 -22.1144 -1.81704
192 1 12.2702 -22.1649 -2.6111
185 1 10.374 -22.5845 0.626771
194 1 11.7537 -21.6384 -3.58394
193 1 12.6603 -21.8559 -3.51097
195 1 11.7254 -20.8695 -3.07327
196 1 11.554 -19.9384 -3.40529
197 1 11.5239 -18.9992 -3.58048
198 1 11.7307 -19.5454 -4.30589
199 1 12.1675 -18.8742 -4.80043
200 1 12.4859 -18.2673 -4.07557
47 1 -19.7488 18.942 0.589349
48 1 -18.9392 19.1533 0.185411
8 1 -17.1362 19.9796 -5.46621
46 1 -19.8494 19.2713 1.43071
45 1 -20.7919 19.3903 1.15653
15 1 -14.4121 17.9664 -2.41759
16 1 -14.1998 17.8216 -1.44461
17 1 -13.4663 18.5165 -1.39938
18 1 -13.9599 18.5883 -0.580524
181 1 8.26477 -21.3469 -0.937348
180 1 8.93938 -21.3686 -1.62848
182 1 8.73569 -21.9522 -0.219303
183 1 9.70018 -21.6797 -0.278226
184 1 10.48 -21.6324 0.345166
42 1 -20.7282 19.1964 2.17904
44 1 -21.3141 18.6355 1.40459
43 1 -20.4347 18.3656 1.86903
30 1 -18.2336 23.154 -0.144136
20 1 -13.7339 19.827 0.682535
29 1 -17.9864 22.2564 0.0474935
27 1 -18.0709 21.4336 0.594853
28 1 -17.9387 21.305 -0.306641
19 1 -13.8756 19.0352 0.277368
40 1 -20.161 20.2611 3.15985
39 1 -20.5088 20.857 2.45503
41 1 -20.7206 19.53 3.10189
38 1 -19.6898 21.1218 1.97298
37 1 -20.3463 21.5426 1.40476
33 1 -19.4616 22.0459 -1.09363
32 1 -19.0483 22.812 -1.51001
31 1 -18.7664 23.5249 -0.883465
36 1 -20.7755 21.7073 0.551943
35 1 -20.6001 20.9635 0.00396426
26 1 -17.5511 20.7157 0.899923
22 1 -14.6632 20.4364 0.220462
21 1 -14.7102 19.59 0.61019
25 1 -16.6671 20.6599 0.508344
24 1 -16.2724 20.3824 -0.354168
23 1 -15.5737 20.7743 0.189105
34 1 -19.8621 21.4944 -0.371329
ITEM: TIMESTEP
6200000
ITEM: NUMBER OF ATOMS
100
ITEM: BOX BOUNDS ff ff ff
-5.0000000000000000e+01 5.0000000000000000e+01
-5.0000000000000000e+01 5.0000000000000000e+01
-5.0000000000000000e+01 5.0000000000000000e+01
ITEM: ATOMS id type x y z
188 1 16.7714 -19.0696 -21.2457
186 1 16.7095 -17.3585 -21.8637
189 1 17.4848 -19.0638 -20.5577
190 1 16.9409 -18.2278 -20.5231
185 1 16.6525 -16.5692 -21.4506
187 1 16.3946 -18.3302 -21.8085
184 1 16.5272 -15.704 -21.0799
183 1 15.709 -16.2352 -21.2086
191 1 17.109 -17.5107 -19.983
179 1 13.8007 -16.8799 -20.643
180 1 14.5638 -17.4987 -20.4553
192 1 16.2129 -17.4875 -20.374
194 1 15.7567 -16.4709 -19.3239
193 1 15.8069 -16.612 -20.2388
182 1 15.54 -16.9887 -21.8808
181 1 14.8391 -17.3604 -21.3263
178 1 13.5611 -16.9518 -19.6849
176 1 14.2484 -15.7505 -18.6309
177 1 13.8922 -16.6976 -18.7876
196 1 16.6273 -16.684 -17.7574
195 1 16.0007 -16.336 -18.4098
174 1 13.1247 -15.8382 -17.4224
175 1 13.3571 -15.3448 -18.2482
173 1 12.8894 -16.0054 -16.4712
197 1 17.1522 -16.4026 -17.0683
198 1 18.0611 -16.1664 -16.9887
170 1 12.1511 -17.4492 -15.6876
171 1 12.5058 -16.7584 -15.1431
172 1 12.1598 -16.3874 -16.0365
199 1 17.6356 -16.2861 -16.1276
200 1 17.2816 -15.3995 -15.9642
168 1 11.5717 -17.6921 -14.6068
169 1 11.3503 -17.1301 -15.3456
166 1 12.6589 -18.3633 -13.2776
167 1 12.0735 -17.9436 -13.8647
151 1 16.5234 -15.1566 -15.358
161 1 12.0356 -17.1934 -10.5568
160 1 12.5601 -16.5874 -11.15
155 1 14.6319 -16.3262 -14.0954
153 1 15.0812 -15.3755 -14.2157
152 1 15.6522 -15.2753 -15.0131
154 1 14.6323 -15.6358 -13.3927
157 1 14.3099 -17.2714 -12.7974
156 1 14.0285 -16.5382 -13.3993
163 1 11.6998 -18.5983 -11.8678
164 1 12.5663 -18.8595 -12.2482
165 1 13.1607 -19.1232 -12.9529
162 1 11.9397 -17.7891 -11.3699
159 1 13.1543 -16.8555 -11.741
158 1 13.472 -16.8786 -12.6235
10 1 -7.55555 24.5381 -4.76824
14 1 -10.5062 23.5818 -5.87254
15 1 -10.6816 24.5309 -5.65211
16 1 -10.1114 24.4639 -4.87888
17 1 -10.3475 25.3638 -5.07718
18 1 -10.9454 25.8387 -5.70695
20 1 -9.51875 26.9963 -6.01636
9 1 -6.70666 24.1386 -5.05242
7 1 -6.33761 23.7725 -3.85608
8 1 -6.48226 24.6596 -4.26479
11 1 -7.82067 23.7043 -5.13351
13 1 -9.56787 23.4629 -5.68348
12 1 -8.62082 23.4183 -5.53307
19 1 -10.5076 26.6748 -5.9737
22 1 -8.92016 28.3348 -5.57551
23 1 -9.41502 28.0666 -4.79692
33 1 -4.25184 28.8739 -1.76666
32 1 -5.0865 28.9636 -2.20357
31 1 -4.67994 29.7793 -2.45412
21 1 -9.15221 27.7928 -6.39501
24 1 -8.64783 27.7454 -4.36382
25 1 -8.22157 28.5596 -3.92911
26 1 -8.66374 29.4155 -3.98896
28 1 -7.07231 29.7066 -3.50402
27 1 -8.01152 29.8588 -3.4571
29 1 -6.16792 29.8814 -3.71551
30 1 -5.57559 29.7927 -2.89443
5 1 -6.58277 23.7332 -2.25901
6 1 -6.56624 24.2323 -3.05278
34 1 -4.06067 28.5837 -0.930203
35 1 -4.81995 28.1418 -1.32768
4 1 -7.38151 23.381 -2.67071
3 1 -7.61452 23.3054 -1.77677
41 1 -6.03184 25.7399 0.590042
36 1 -5.27985 28.1433 -0.510691
37 1 -5.83048 27.323 -0.378639
2 1 -8.36979 22.6636 -1.71055
1 1 -8.70354 22.8586 -0.773827
50 1 -9.49191 22.8268 -0.242655
49 1 -10.4375 22.9197 -0.533928
48 1 -10.0799 23.6458 0.0124848
46 1 -8.9718 24.3009 -0.986313
42 1 -6.10019 25.0296 -0.0691197
44 1 -7.59769 24.3446 -1.02999
43 1 -6.69917 24.3674 -0.516549
39 1 -7.19973 26.7876 0.302216
40 1 -7.0007 25.868 0.513845
38 1 -6.76901 27.4831 -0.218677
47 1 -9.60835 24.4276 -0.260811
45 1 -8.2632 25.0062 -0.993835
ITEM: TIMESTEP
6300000
ITEM: NUMBER OF ATOMS
100
ITEM: BOX BOUNDS ff ff ff
-5.0000000000000000e+01 5.0000000000000000e+01
-5.0000000000000000e+01 5.0000000000000000e+01
-5.0000000000000000e+01 5.0000000000000000e+01
ITEM: ATOMS id type x y z
23 1 -17.589 17.1905 -12.9653
22 1 -17.3975 16.2014 -12.9437
21 1 -17.2145 16.0765 -11.9549
20 1 -16.5105 16.682 -12.2971
152 1 14.3283 -11.5551 -12.3605
45 1 -16.9947 12.4793 -9.58519
18 1 -14.9586 16.063 -12.3649
17 1 -14.438 15.4321 -12.8791
15 1 -13.9808 15.3992 -14.3989
16 1 -14.6337 15.8301 -13.7774
24 1 -17.4501 17.3003 -12.0376
25 1 -17.4224 17.7641 -11.2208
19 1 -15.8839 15.9436 -12.1072
182 1 13.019 -17.9795 -10.9005
180 1 12.572 -16.5628 -10.6187
181 1 13.0245 -17.07 -11.309
178 1 11.935 -14.9547 -11.216
179 1 11.9163 -15.8833 -10.8147
177 1 12.7465 -14.6443 -11.6443
176 1 12.17 -13.8831 -11.9415
199 1 15.3613 -13.208 -12.0615
162 1 11.1409 -10.8231 -12.2643
200 1 15.1648 -12.7512 -12.8645
151 1 14.3323 -12.3315 -12.8294
161 1 11.1305 -11.3406 -13.1782
160 1 10.7304 -12.2291 -13.4016
157 1 12.3868 -11.6493 -13.5014
158 1 12.001 -12.4008 -14.0253
156 1 12.6349 -10.7165 -13.4109
153 1 15.1342 -11.073 -12.6794
154 1 14.3368 -10.5496 -12.7256
159 1 11.5615 -12.6572 -13.1762
155 1 13.5983 -10.4182 -13.3183
48 1 -18.079 11.6428 -10.8476
1 1 -16.3691 11.4135 -12.0817
47 1 -18.1104 10.993 -10.1249
46 1 -17.6713 11.7992 -9.66741
13 1 -13.1816 15.3693 -12.8086
14 1 -13.348 15.2266 -13.7038
43 1 -16.0545 13.8117 -10.4867
44 1 -16.5506 13.094 -10.1749
29 1 -15.2569 17.1414 -10.1983
27 1 -15.9315 16.8626 -11.0039
30 1 -15.1381 18.0123 -9.82559
28 1 -14.9863 16.6657 -11.0069
26 1 -16.6035 17.4943 -10.9038
183 1 13.4697 -18.651 -10.3637
186 1 13.1014 -18.0698 -9.04625
185 1 12.8367 -19.0375 -9.09793
184 1 13.3567 -19.3511 -9.75357
187 1 13.2955 -17.3067 -9.53787
197 1 14.3826 -14.1264 -11.7474
196 1 14.5871 -14.3204 -10.7869
172 1 10.0017 -13.6424 -11.3055
175 1 12.0183 -12.9168 -11.8283
198 1 14.6998 -13.6531 -12.5583
174 1 11.1926 -13.167 -11.3958
163 1 11.2275 -10.9739 -11.2835
173 1 10.3733 -12.6773 -11.4472
164 1 11.7251 -11.2342 -10.5321
165 1 10.8387 -11.1224 -10.2799
4 1 -14.7138 12.5528 -10.6167
49 1 -17.3119 11.1145 -10.7415
50 1 -17.1134 11.6449 -11.5343
2 1 -16.0188 12.1083 -11.4056
3 1 -15.2567 12.747 -11.38
42 1 -15.7365 14.664 -10.7025
11 1 -12.5376 14.3568 -11.7153
12 1 -12.5467 14.6943 -12.6789
31 1 -15.458 17.8682 -8.9636
41 1 -15.2831 14.8942 -11.5263
40 1 -14.6162 15.0473 -10.8028
33 1 -15.5363 16.754 -7.7373
32 1 -15.7413 17.0033 -8.65584
34 1 -14.979 16.0596 -7.99008
188 1 14.2626 -17.195 -9.30216
191 1 14.4072 -15.1799 -7.67576
190 1 13.9421 -16.0455 -7.97366
189 1 14.3869 -16.736 -8.43248
194 1 15.0993 -14.7107 -9.8381
195 1 14.3257 -14.1464 -9.84603
171 1 10.4954 -14.4789 -11.2617
192 1 14.3399 -14.3478 -8.14083
193 1 14.8737 -14.4693 -8.9655
170 1 10.9001 -14.3712 -10.3893
169 1 10.7701 -14.0899 -9.4773
167 1 10.6774 -12.2506 -9.09683
168 1 11.0565 -13.1577 -9.19779
166 1 10.2208 -11.5615 -9.60199
5 1 -14.0267 12.7664 -10.0035
6 1 -14.392 13.0193 -9.1429
7 1 -13.8654 13.7591 -8.99645
10 1 -12.5934 14.1243 -10.771
9 1 -12.5293 14.3927 -9.89227
8 1 -13.0902 14.3018 -9.02504
38 1 -15.0553 14.6556 -9.14692
39 1 -14.7893 15.1453 -9.8609
37 1 -15.8553 14.8767 -8.74194
36 1 -16.0756 15.7736 -8.56117
35 1 -15.182 15.8986 -8.90502
ITEM: TIMESTEP
6400000
ITEM: NUMBER OF ATOMS
100
ITEM: BOX BOUNDS ff ff ff
-5.0000000000000000e+01 5.0000000000000000e+01
-5.0000000000000000e+01 5.0000000000000000e+01
-5.0000000000000000e+01 5.0000000000000000e+01
ITEM: ATOMS id type x y z
6 1 -15.016 20.8578 -14.1535
5 1 -15.6106 21.4726 -14.5324
4 1 -14.9347 22.189 -14.3599
2 1 -14.1398 21.7803 -15.8177
1 1 -14.2743 22.6589 -16.2855
3 1 -14.315 21.6101 -14.8914
43 1 -16.1148 24.8254 -15.8322
49 1 -13.4475 24.1119 -16.1015
50 1 -13.4111 23.2388 -16.4161
48 1 -14.1008 24.1432 -15.3853
45 1 -15.5879 24.9419 -17.5082
7 1 -14.4808 20.0358 -14.0389
10 1 -12.7637 18.745 -13.473
8 1 -13.811 19.6338 -13.4845
11 1 -12.7546 17.8117 -13.9658
9 1 -13.1626 19.33 -12.827
12 1 -13.6324 18.2445 -13.7469
14 1 -13.2279 17.8934 -12.2813
13 1 -14.008 18.0448 -12.7855
40 1 -15.3094 23.7879 -14.5346
41 1 -15.3576 24.6068 -15.091
15 1 -14.0057 18.0242 -11.6636
42 1 -16.1336 25.2284 -14.9858
39 1 -15.9355 23.6656 -13.8033
44 1 -15.9605 25.3152 -16.6768
46 1 -15.0787 24.4361 -16.8854
47 1 -14.5894 23.9062 -16.2101
28 1 -21.3405 21.2304 -10.322
27 1 -21.0393 21.2 -11.2775
20 1 -16.0106 20.5617 -10.8369
19 1 -15.274 19.8113 -10.9415
18 1 -15.8265 19.1231 -10.6136
29 1 -21.9472 21.5965 -10.9985
26 1 -20.2019 20.7119 -11.4182
25 1 -19.2794 20.7106 -11.298
24 1 -18.4403 20.5889 -11.7072
22 1 -16.913 20.7129 -11.7742
23 1 -17.7353 21.2666 -11.8496
21 1 -16.8426 20.9853 -10.8894
17 1 -15.1276 18.645 -10.2857
16 1 -14.4784 18.6133 -11.04
34 1 -19.3576 23.5116 -11.4293
38 1 -16.124 23.5312 -12.8659
33 1 -20.1159 23.1899 -10.9098
36 1 -17.6489 23.6582 -12.0958
37 1 -16.8776 23.9965 -12.4765
35 1 -18.5569 23.8996 -11.8083
30 1 -21.573 22.3471 -10.5405
31 1 -21.2749 22.9503 -11.2213
32 1 -20.9676 23.5678 -10.5981
172 1 22.594 -0.752647 0.00729704
173 1 23.3078 -0.190488 0.37204
167 1 24.9351 -2.64347 2.13232
170 1 23.2027 -2.17621 0.0735928
169 1 23.9714 -2.38447 0.563397
168 1 24.343 -2.7625 1.3592
176 1 22.0011 -0.870478 1.05953
177 1 21.8459 -1.67259 1.56045
178 1 22.6136 -1.86104 2.18974
171 1 22.4006 -1.70796 -0.235429
174 1 23.1059 0.375892 1.1074
175 1 22.5439 -0.254905 1.48848
166 1 25.4409 -3.14594 1.51551
165 1 25.8912 -3.20403 2.42016
179 1 23.4931 -1.65854 1.93918
181 1 25.3971 -1.82358 1.54081
180 1 24.4456 -1.60586 1.71218
164 1 26.3277 -2.37833 2.26026
163 1 26.4651 -1.50025 2.63355
183 1 25.537 -0.36122 1.7008
159 1 28.7309 -0.955846 0.683657
184 1 24.9891 0.338034 1.86595
185 1 25.2995 0.4153 2.71022
187 1 24.1946 1.5531 1.91979
186 1 24.9311 1.37722 2.5287
158 1 29.2173 -0.851761 1.56888
188 1 24.8606 2.05945 1.38639
194 1 26.9034 2.23246 0.481731
193 1 26.3829 1.47365 0.670332
161 1 27.7257 -0.263541 2.02471
182 1 25.5746 -1.07169 1.04524
162 1 27.2156 -1.08727 2.24503
160 1 28.3657 -0.392178 1.3407
157 1 29.4944 0.0133273 1.10578
156 1 29.2012 0.560193 1.81321
155 1 28.9021 0.912645 2.74216
154 1 28.3312 1.38301 3.376
191 1 25.02 1.10029 -0.522019
189 1 24.5187 1.7916 0.592327
190 1 24.1767 1.33584 -0.229186
195 1 26.5629 3.04853 0.090046
197 1 27.5228 3.65758 0.500618
196 1 27.5262 2.97584 -0.146379
199 1 28.4975 2.66525 1.29818
198 1 27.6696 3.18917 1.35701
192 1 25.7535 1.55308 -0.062846
151 1 28.61 2.31294 2.35808
152 1 28.3406 2.70852 3.1648
153 1 27.8735 2.1339 3.77549
200 1 28.111 1.82517 1.66675
ITEM: TIMESTEP
6500000
ITEM: NUMBER OF ATOMS
100
ITEM: BOX BOUNDS ff ff ff
-5.0000000000000000e+01 5.0000000000000000e+01
-5.0000000000000000e+01 5.0000000000000000e+01
-5.0000000000000000e+01 5.0000000000000000e+01
ITEM: ATOMS id type x y z
7 1 -4.66249 23.7217 -14.5914
8 1 -4.72032 23.2269 -13.766
3 1 -5.04379 26.8572 -13.8647
4 1 -4.51355 26.1632 -14.4772
6 1 -4.29277 24.5828 -14.891
5 1 -4.53957 25.4851 -15.1834
9 1 -4.24372 23.1727 -12.9379
10 1 -5.18467 23.1636 -12.7767
50 1 -6.28453 26.6585 -12.6641
2 1 -5.92267 26.8059 -14.2536
1 1 -5.86568 26.2999 -13.4295
12 1 -5.70865 24.6733 -12.465
13 1 -5.69461 25.0541 -11.5195
11 1 -5.01486 24.0371 -12.2977
48 1 -6.50501 27.3838 -11.4445
49 1 -6.47012 27.6257 -12.3848
14 1 -5.06266 25.2301 -10.8651
17 1 -3.78671 25.3741 -9.69143
15 1 -4.7794 25.8051 -10.0922
16 1 -3.95345 25.8901 -10.4799
44 1 -6.15554 27.0251 -8.70107
45 1 -6.17897 27.1161 -9.61789
47 1 -6.75326 26.9548 -10.6232
46 1 -6.83396 26.467 -9.80424
43 1 -7.04407 27.2687 -8.43975
19 1 -4.92033 24.4023 -8.57219
20 1 -4.84944 23.9653 -9.41321
18 1 -4.65936 25.0531 -9.35363
42 1 -6.68852 26.5345 -7.97625
41 1 -5.98785 27.0438 -7.59668
21 1 -4.81166 23.0688 -9.1799
22 1 -5.631 22.6575 -8.83415
40 1 -5.67536 27.8414 -7.29812
23 1 -5.95278 22.0239 -8.15496
24 1 -6.70126 22.6995 -8.06943
25 1 -6.98393 22.5488 -7.19413
36 1 -5.75584 26.9411 -4.78727
27 1 -5.23459 23.3448 -6.67977
26 1 -6.15164 22.9331 -6.67897
30 1 -4.77873 24.8035 -6.48791
29 1 -5.44504 24.3481 -7.05437
39 1 -5.51193 28.6035 -6.73913
37 1 -5.75461 27.0958 -5.72548
38 1 -5.76098 28.0121 -6.01051
32 1 -6.55119 24.5175 -5.68895
31 1 -5.67229 24.5333 -6.05117
35 1 -6.41844 26.317 -4.86853
34 1 -5.64212 25.7977 -4.76129
28 1 -4.67686 23.8677 -7.38324
33 1 -6.08521 25.3975 -5.47123
167 1 34.0044 -4.96599 -3.00778
159 1 29.1242 -5.36022 -3.18535
161 1 30.5195 -5.43904 -3.61992
160 1 29.7967 -5.96738 -3.38003
164 1 32.3285 -4.07816 -3.65132
165 1 32.3932 -4.93841 -3.21491
166 1 33.2149 -5.52436 -3.21779
163 1 31.3873 -4.2161 -3.74024
162 1 31.4515 -5.19747 -3.76191
168 1 34.8409 -4.5184 -2.83558
169 1 35.6937 -4.22759 -3.13923
170 1 35.8429 -5.11539 -2.72648
171 1 35.7753 -4.30934 -2.16269
158 1 29.3088 -4.69148 -2.42488
157 1 28.3674 -4.69593 -2.63626
156 1 28.3419 -5.08379 -1.7367
172 1 35.3026 -4.81084 -1.50966
173 1 35.4575 -4.51127 -0.559395
155 1 28.3386 -4.19367 -1.39218
154 1 28.9001 -4.4658 -0.666438
175 1 35.7473 -3.5965 1.10057
174 1 35.5124 -4.21319 0.359131
200 1 30.3766 -6.50223 0.839903
199 1 30.649 -6.53039 1.751
153 1 29.2545 -5.2587 -0.175566
152 1 29.715 -5.89254 0.380482
151 1 30.5493 -6.11807 0.0115112
194 1 31.8012 -5.34378 3.24024
177 1 36.0099 -3.21833 1.94378
178 1 35.7898 -3.56828 2.75463
176 1 35.7324 -4.14041 1.84923
196 1 30.1866 -6.17606 3.46203
198 1 30.1356 -6.83246 2.45253
197 1 29.8172 -7.05528 3.35375
195 1 30.9309 -5.75165 3.11177
193 1 32.6591 -5.30105 3.65896
192 1 32.4233 -5.29092 4.62923
185 1 32.1934 -2.90677 4.97814
184 1 32.7996 -2.27673 4.66537
181 1 33.1233 -3.64441 3.36404
179 1 34.8507 -3.80135 2.90069
180 1 33.8888 -3.98758 2.91474
183 1 33.3071 -3.03574 4.30973
182 1 33.9126 -3.17036 3.61077
189 1 30.9138 -4.7495 5.37098
190 1 31.3621 -5.57045 5.18412
187 1 31.7004 -4.19341 6.1347
188 1 30.8649 -4.64672 6.33327
186 1 32.1318 -3.73105 5.44184
191 1 32.1799 -5.50101 5.57589
ITEM: TIMESTEP
6600000
ITEM: NUMBER OF ATOMS
100
ITEM: BOX BOUNDS ff ff ff
-5.0000000000000000e+01 5.0000000000000000e+01
-5.0000000000000000e+01 5.0000000000000000e+01
-5.0000000000000000e+01 5.0000000000000000e+01
ITEM: ATOMS id type x y z
49 1 6.3264 30.2354 -19.4665
50 1 5.53763 29.576 -19.474
1 1 4.55492 29.3986 -19.3581
2 1 4.35788 28.9459 -20.1537
48 1 6.43939 29.377 -19.12
47 1 7.23966 28.8878 -19.231
46 1 7.94622 29.5607 -19.1916
10 1 5.38424 25.1771 -19.6406
13 1 3.85927 24.1195 -18.9699
12 1 4.70267 24.473 -18.5837
11 1 5.65612 24.7238 -18.8148
9 1 5.71411 25.6388 -20.4343
8 1 5.18225 26.302 -20.051
7 1 4.87555 26.547 -19.1364
6 1 5.65748 26.8626 -18.7143
4 1 5.56414 28.7204 -19.0985
5 1 5.90378 27.7993 -18.9061
3 1 5.04416 28.3477 -19.8407
43 1 7.52935 31.6871 -17.8464
45 1 7.60812 29.8711 -18.3596
44 1 7.48646 30.9171 -18.4873
30 1 2.08971 32.2238 -18.3143
33 1 2.56228 33.913 -19.1906
32 1 2.27354 33.0368 -18.9671
40 1 6.33256 33.6597 -18.9901
42 1 7.63958 32.5088 -18.3526
41 1 6.90084 33.1267 -18.446
35 1 3.86572 33.1485 -19.2428
34 1 3.42995 33.8975 -18.8269
36 1 4.73516 33.4782 -19.2171
39 1 6.22366 33.3845 -19.9111
37 1 5.27085 32.8719 -19.7473
38 1 5.80535 32.7411 -20.5529
18 1 2.70644 25.6541 -16.3072
17 1 3.21412 24.8891 -16.3627
19 1 2.7391 26.0253 -17.1869
16 1 3.05483 23.9926 -16.6098
15 1 3.45552 24.4377 -17.3824
14 1 3.3132 24.1388 -18.2238
21 1 2.1871 27.9177 -17.1119
20 1 2.4013 26.9351 -16.9664
27 1 1.05172 30.7152 -17.3233
29 1 1.51135 31.4484 -18.6148
28 1 1.19509 30.6058 -18.2839
31 1 2.22674 32.1587 -19.2602
22 1 2.75043 28.5664 -17.6471
23 1 2.58875 29.5083 -17.7405
24 1 2.38822 29.6952 -18.6887
25 1 2.33526 30.6139 -18.3881
26 1 1.97282 30.6124 -17.464
182 1 33.0294 -8.47024 -5.32318
187 1 32.3924 -10.9788 -5.12471
184 1 31.9604 -9.54717 -5.96527
185 1 32.1461 -10.4517 -6.33336
186 1 31.6111 -10.9533 -5.66456
183 1 32.1602 -8.81284 -5.43496
181 1 32.829 -7.80517 -4.60225
180 1 32.7614 -7.47114 -3.72024
189 1 33.4258 -10.6825 -5.12465
190 1 34.3156 -11.0743 -5.04329
188 1 33.0643 -11.2958 -4.52532
192 1 34.8544 -11.386 -3.32019
193 1 35.1213 -10.6278 -2.83231
191 1 34.5485 -10.8971 -4.08614
178 1 31.8565 -6.67423 -3.62743
179 1 32.8618 -6.57174 -3.48529
175 1 31.349 -5.7875 -2.01525
177 1 32.0039 -6.51721 -2.64049
176 1 31.1171 -6.16362 -2.80622
171 1 29.0726 -6.34303 -1.76217
170 1 28.6074 -6.96037 -1.2693
194 1 35.7761 -11.2184 -2.48894
160 1 29.8696 -8.12605 -2.36398
174 1 30.5931 -5.25875 -1.7485
161 1 29.2058 -8.45643 -1.76768
162 1 28.8893 -8.92348 -1.00533
163 1 28.5956 -9.7585 -0.534055
173 1 29.7176 -4.86691 -1.47865
172 1 28.8206 -5.3783 -1.56451
169 1 27.7175 -7.10151 -1.06116
168 1 27.7035 -7.55721 -1.90513
196 1 34.5554 -11.142 -1.23734
197 1 33.7283 -10.8281 -1.65857
195 1 35.1941 -11.5673 -1.81869
198 1 34.0508 -9.96722 -1.32593
159 1 30.6584 -7.77174 -2.00869
157 1 31.2089 -8.93063 -2.10839
156 1 31.4618 -9.08302 -1.16892
153 1 31.5756 -8.93977 0.200693
152 1 31.3607 -9.95593 0.0941841
200 1 32.3479 -10.3876 -1.13949
199 1 33.1832 -10.064 -0.880817
158 1 31.4132 -8.13962 -1.56839
151 1 32.1964 -10.2842 -0.22346
164 1 27.7768 -9.65885 -0.100394
166 1 28.1859 -8.98207 -1.80714
165 1 27.8179 -9.17701 -0.963622
167 1 27.5806 -8.31397 -2.37447
154 1 31.0573 -8.41208 -0.40592
155 1 30.6045 -9.15104 -0.664522
ITEM: TIMESTEP
6700000
ITEM: NUMBER OF ATOMS
100
ITEM: BOX BOUNDS ff ff ff
-5.0000000000000000e+01 5.0000000000000000e+01
-5.0000000000000000e+01 5.0000000000000000e+01
-5.0000000000000000e+01 5.0000000000000000e+01
ITEM: ATOMS id type x y z
39 1 7.73657 34.5976 -22.6891
36 1 8.71321 32.8361 -23.9614
35 1 8.69313 32.2087 -23.292
37 1 8.09974 32.998 -23.2564
38 1 8.09232 33.7273 -22.6928
40 1 7.29233 35.2635 -22.0309
41 1 7.48304 36.1055 -22.4348
42 1 8.22675 36.6488 -22.4771
43 1 8.85376 36.2138 -23.1256
44 1 8.33856 35.4404 -23.2515
45 1 8.9469 34.8853 -22.7927
28 1 7.92556 29.941 -20.3229
27 1 8.30041 29.4996 -21.1485
31 1 7.59632 32.1414 -21.0353
29 1 8.06431 30.8036 -20.6231
32 1 8.45514 31.6905 -21.1999
33 1 8.35183 31.0438 -21.8783
34 1 8.44442 31.6132 -22.5919
48 1 10.2218 35.4156 -21.4273
49 1 11.1575 35.0488 -21.3371
50 1 10.9785 34.8551 -20.3288
46 1 9.77878 35.2262 -22.4442
47 1 9.72777 36.0947 -21.961
1 1 10.6549 34.1246 -20.8682
24 1 7.59924 27.1169 -19.7711
23 1 8.36512 26.8456 -19.3893
22 1 8.52842 27.4154 -18.6427
21 1 8.68641 28.1471 -19.2314
26 1 8.37832 28.5613 -20.7908
25 1 8.05675 27.8091 -20.2295
19 1 8.10185 29.4744 -19.3429
20 1 8.51443 28.9363 -18.6238
30 1 7.75379 31.6291 -20.2708
5 1 11.761 32.9066 -18.6418
3 1 12.312 33.7786 -20.0858
4 1 11.7618 33.5655 -19.3712
2 1 11.5748 33.9984 -20.6558
18 1 9.07753 29.4566 -19.4331
17 1 9.83559 29.359 -18.8389
16 1 10.6092 29.7406 -18.3998
15 1 9.8771 30.3787 -18.5484
14 1 9.89085 30.9033 -19.4139
13 1 10.8268 30.8257 -19.4239
12 1 11.7145 31.1289 -19.4532
11 1 11.3199 31.8642 -19.1262
7 1 13.5084 33.5518 -18.9012
10 1 12.2305 32.1267 -19.276
6 1 12.5525 33.4549 -18.7513
8 1 13.0744 33.1583 -19.7287
9 1 13.1794 32.3414 -19.0785
160 1 45.3656 -13.7463 -12.3709
159 1 45.9588 -14.0685 -11.697
161 1 45.5624 -12.8357 -12.09
163 1 45.5889 -11.8244 -11.3639
162 1 45.6241 -11.9088 -12.3421
164 1 46.05 -11.0159 -11.7451
165 1 45.8019 -10.5912 -10.905
166 1 46.7238 -10.2578 -11.028
154 1 48.1179 -14.5939 -8.83584
155 1 47.3958 -14.4877 -9.46655
158 1 46.6163 -14.5786 -11.2613
156 1 47.1583 -14.7225 -10.3734
167 1 47.1924 -9.52278 -10.6081
168 1 47.2859 -9.72525 -9.66207
153 1 47.5173 -15.3224 -8.81694
151 1 45.6641 -14.979 -8.50669
152 1 46.5668 -15.2097 -8.84541
200 1 44.8716 -14.8307 -9.15165
197 1 44.0812 -16.0779 -8.78972
157 1 47.5647 -14.3208 -11.1239
170 1 47.6861 -10.7788 -8.25581
171 1 47.5206 -10.6842 -7.32241
169 1 47.421 -10.4612 -9.12768
194 1 44.6829 -17.2101 -6.80907
195 1 43.9862 -16.9377 -7.51126
193 1 45.1751 -17.2954 -7.62938
196 1 44.4505 -16.9497 -8.31828
199 1 44.282 -14.8298 -8.35052
198 1 44.1371 -15.6634 -7.93993
172 1 47.9552 -9.90514 -7.74923
173 1 48.1253 -9.92931 -6.78332
190 1 46.2145 -15.7394 -6.85943
191 1 45.8007 -16.3333 -7.4876
192 1 46.0075 -17.1207 -8.0165
187 1 47.975 -14.5069 -7.58049
189 1 47.1055 -15.938 -6.8694
188 1 47.6524 -15.1663 -6.94298
175 1 48.0733 -9.55594 -5.14094
176 1 47.8159 -10.2953 -4.58231
174 1 48.0756 -9.25612 -6.06814
185 1 48.2209 -13.2428 -6.47481
186 1 47.8078 -14.1146 -6.69312
184 1 48.2628 -12.4769 -5.98131
177 1 48.709 -10.1059 -4.30785
179 1 49.4352 -11.8339 -3.96829
178 1 49.2869 -10.8722 -4.03316
182 1 47.7484 -13.1832 -4.61836
183 1 47.5292 -12.6362 -5.43594
181 1 48.3605 -12.9049 -3.96414
180 1 48.5171 -11.9444 -3.67781
ITEM: TIMESTEP
6800000
ITEM: NUMBER OF ATOMS
100
ITEM: BOX BOUNDS ff ff ff
-5.0000000000000000e+01 5.0000000000000000e+01
-5.0000000000000000e+01 5.0000000000000000e+01
-5.0000000000000000e+01 5.0000000000000000e+01
ITEM: ATOMS id type x y z
49 1 13.4812 30.4292 -29.7891
10 1 15.2536 31.7512 -32.3152
11 1 14.7218 31.8932 -31.5355
47 1 14.5101 29.0648 -30.2086
48 1 14.2733 29.8687 -29.689
46 1 14.6468 28.9924 -29.2459
1 1 14.1198 30.5336 -31.3193
50 1 13.3869 30.7173 -30.7062
2 1 13.3116 30.1104 -31.7448
3 1 13.7875 30.4424 -32.5515
9 1 14.5697 31.1022 -32.3765
12 1 13.8217 32.2955 -31.5067
14 1 13.8934 33.7528 -30.9425
13 1 13.3114 33.1046 -31.499
45 1 14.1495 29.011 -28.465
43 1 14.059 30.3496 -27.874
44 1 14.6702 29.7294 -28.3289
4 1 12.9523 30.5005 -33.1242
6 1 13.5421 29.5381 -32.9258
7 1 14.52 29.3358 -32.7724
8 1 14.8146 30.1203 -32.3822
17 1 13.1394 34.9659 -29.4054
15 1 14.3652 33.9129 -30.1757
16 1 13.8671 34.3408 -29.455
18 1 13.5756 35.163 -28.4943
42 1 13.4274 31.0483 -28.1099
41 1 12.7671 30.3805 -28.1471
40 1 12.3315 31.3442 -28.3846
5 1 12.8568 29.6607 -33.6422
20 1 14.5652 35.7741 -28.5588
19 1 13.6895 36.1445 -28.3025
21 1 15.3262 35.2022 -28.7241
39 1 12.2041 31.0566 -27.4947
38 1 12.3969 31.1096 -26.5388
22 1 15.3146 35.1122 -27.7462
23 1 15.5086 34.5823 -26.9712
37 1 11.727 31.0748 -25.8045
34 1 10.1646 31.047 -24.5636
36 1 11.0656 30.4197 -26.1081
33 1 10.751 31.874 -24.5932
30 1 11.797 33.3796 -25.2955
29 1 12.629 33.007 -25.5666
28 1 13.5617 33.1173 -25.7788
32 1 11.3178 32.3344 -25.2136
31 1 10.9848 33.1158 -24.8712
27 1 13.7575 33.8181 -26.4276
26 1 13.4776 34.5947 -26.9364
25 1 14.1293 35.3138 -26.783
24 1 15.0486 35.4084 -26.5475
35 1 10.4287 30.4127 -25.2846
174 1 40.1068 -13.7361 -7.23123
175 1 39.5498 -13.6085 -7.91815
176 1 38.9112 -12.895 -7.9063
178 1 38.0103 -14.1499 -6.71659
173 1 40.1786 -13.1452 -6.5433
177 1 38.5143 -13.6864 -7.46132
171 1 41.4895 -12.4714 -5.67217
170 1 40.9039 -12.1348 -6.34494
169 1 41.0968 -11.1769 -6.11969
167 1 42.0148 -9.77582 -5.57499
168 1 41.7512 -10.4715 -6.13362
180 1 36.2947 -14.311 -6.05066
181 1 36.9533 -13.8498 -5.56137
172 1 40.9911 -13.1821 -6.05634
179 1 37.1261 -14.5096 -6.38714
166 1 41.3384 -9.99121 -4.95343
165 1 40.4475 -10.3679 -4.98387
184 1 38.9408 -13.6786 -5.05024
185 1 39.3402 -13.973 -4.22693
183 1 38.053 -13.8787 -5.48382
182 1 37.4824 -13.6253 -4.73841
160 1 42.6092 -12.0732 -3.39084
159 1 42.4008 -12.3503 -2.42571
157 1 42.4344 -13.4428 -1.86562
158 1 42.4053 -12.5305 -1.49821
164 1 40.626 -10.5898 -4.04359
163 1 40.2568 -11.5057 -4.02507
161 1 41.7238 -11.6438 -3.26586
162 1 41.1066 -11.9919 -3.90246
186 1 39.6137 -14.7434 -4.74972
187 1 39.7707 -15.2224 -3.92368
156 1 43.4138 -13.6354 -2.22289
154 1 44.4036 -14.4741 -3.19512
152 1 44.928 -13.7488 -1.5976
155 1 43.5634 -13.9148 -3.12837
153 1 44.4058 -14.3962 -2.12884
193 1 43.2582 -16.6819 -2.36961
188 1 40.5073 -15.7059 -3.5169
189 1 41.4365 -15.3642 -3.44536
191 1 42.7433 -16.4981 -4.217
200 1 46.1793 -13.3072 -2.64324
192 1 42.9836 -16.6331 -3.32781
194 1 44.0363 -16.1034 -2.26495
190 1 42.2051 -15.9383 -3.67477
151 1 45.7466 -13.292 -1.79827
196 1 45.0285 -15.7237 -1.00106
197 1 45.6981 -15.0278 -0.833282
195 1 44.1401 -15.8672 -1.32695
198 1 46.0759 -14.7728 -1.67522
199 1 45.9506 -14.2283 -2.48223
ITEM: TIMESTEP
6900000
ITEM: NUMBER OF ATOMS
100
ITEM: BOX BOUNDS ff ff ff
-5.0000000000000000e+01 5.0000000000000000e+01
-5.0000000000000000e+01 5.0000000000000000e+01
-5.0000000000000000e+01 5.0000000000000000e+01
ITEM: ATOMS id type x y z
33 1 10.2422 37.3083 -35.5702
35 1 11.1638 38.3828 -35.093
34 1 10.4097 37.8146 -34.8186
36 1 10.8666 39.0401 -35.7335
37 1 10.0375 39.4841 -35.7637
32 1 10.9818 36.8058 -35.7416
31 1 11.4528 35.9533 -35.7565
38 1 9.13101 39.4272 -35.3632
39 1 9.15109 40.2151 -34.8366
40 1 9.96733 39.9911 -34.3345
30 1 11.7266 35.5927 -34.8716
29 1 10.8607 35.6053 -34.3829
41 1 9.95739 40.2443 -33.4158
43 1 9.73426 41.6843 -32.9493
42 1 9.75184 41.1079 -33.7787
20 1 12.0605 38.6556 -32.2284
16 1 13.4197 40.8005 -33.6972
44 1 10.6331 41.9131 -33.1964
45 1 11.0953 42.7386 -33.2237
15 1 13.336 40.5737 -32.7562
14 1 12.769 41.1755 -32.2997
46 1 11.9182 42.2819 -32.96
49 1 12.6429 43.3286 -34.3615
50 1 12.1885 43.497 -35.2109
1 1 12.8623 44.1889 -35.4264
2 1 13.702 43.7633 -35.1522
27 1 10.7841 36.2675 -33.2993
28 1 10.4604 36.5059 -34.2432
23 1 10.9133 37.2305 -30.5764
21 1 11.6158 38.5165 -31.431
22 1 11.6781 37.5719 -31.0936
19 1 12.7707 38.6634 -32.9596
18 1 12.8064 39.6447 -33.1175
17 1 13.7441 39.8921 -33.4922
13 1 12.9585 41.8601 -31.7423
47 1 12.6856 42.8225 -32.8012
48 1 12.587 43.5402 -33.4163
11 1 14.0051 42.6347 -30.5576
10 1 14.6467 43.2175 -30.933
12 1 13.4854 41.9736 -30.9519
9 1 15.4987 43.4464 -31.2271
4 1 14.2368 44.1163 -33.9316
3 1 14.5069 43.5716 -34.701
5 1 13.8913 44.8667 -33.4818
26 1 10.9828 37.0974 -32.8031
25 1 10.9153 37.2037 -31.8057
24 1 10.6608 37.9584 -31.2078
8 1 14.9596 44.1838 -31.5386
6 1 13.7652 44.9483 -32.4913
7 1 14.0967 44.3044 -31.8982
178 1 37.3968 -20.4062 -3.94707
177 1 37.6361 -21.1883 -3.40822
179 1 37.8161 -19.6255 -4.34156
173 1 38.3689 -21.6037 -3.89298
174 1 37.4611 -21.8855 -4.22278
175 1 36.8734 -21.9889 -3.4722
184 1 37.4144 -20.2689 -2.96075
183 1 38.2571 -20.5287 -2.61313
176 1 36.8652 -21.2878 -2.87656
185 1 36.4021 -20.0738 -2.8406
182 1 38.8255 -20.8424 -3.28816
186 1 35.513 -20.1436 -2.6944
180 1 38.6734 -19.9114 -3.96068
181 1 39.4912 -20.3755 -3.75308
187 1 35.4738 -19.1217 -2.67441
188 1 36.2069 -18.4749 -2.7527
172 1 39.369 -21.6628 -3.88268
171 1 39.6303 -21.7792 -2.96781
170 1 39.917 -21.2762 -2.23285
169 1 39.2642 -20.8547 -1.62011
167 1 40.0163 -20.142 -0.217396
168 1 40.0112 -20.4625 -1.13574
166 1 39.9033 -20.8841 0.42113
189 1 36.9025 -19.1202 -2.55754
190 1 37.7146 -18.7277 -2.69505
191 1 38.4574 -18.1495 -2.38849
192 1 37.6598 -17.6495 -2.45234
165 1 40.0791 -21.1724 1.32323
164 1 40.6438 -21.1895 2.18278
163 1 41.0761 -21.1942 2.98801
193 1 37.1028 -16.7993 -2.32314
194 1 37.935 -16.4842 -1.84849
195 1 38.4444 -16.0459 -1.18378
196 1 39.2605 -16.6106 -1.11582
199 1 38.4638 -17.6069 0.501328
200 1 39.2674 -17.075 0.240289
162 1 41.0405 -20.1662 3.0377
161 1 41.4465 -20.0402 3.88077
160 1 40.8908 -19.2649 3.65543
197 1 38.5854 -17.0549 -0.534928
198 1 38.0977 -16.7098 0.207627
151 1 38.956 -16.1715 0.550009
152 1 39.7545 -16.4504 1.03874
159 1 40.6003 -18.7854 4.46596
157 1 40.5939 -17.2396 3.42874
158 1 40.5507 -18.1996 3.71478
156 1 40.0286 -16.5811 3.78405
155 1 40.0189 -15.7678 3.3128
154 1 40.636 -16.0404 2.6244
153 1 40.3044 -16.1184 1.76728
ITEM: TIMESTEP
7000000
ITEM: NUMBER OF ATOMS
100
ITEM: BOX BOUNDS ff ff ff
-5.0000000000000000e+01 5.0000000000000000e+01
-5.0000000000000000e+01 5.0000000000000000e+01
-5.0000000000000000e+01 5.0000000000000000e+01
ITEM: ATOMS id type x y z
16 1 6.07952 44.0024 -30.5506
23 1 3.20599 45.4339 -31.7065
18 1 5.70025 43.1076 -31.5478
15 1 5.92878 44.9604 -30.7956
14 1 6.08408 45.0232 -31.756
13 1 6.93858 45.0095 -32.0235
24 1 3.01438 45.9685 -30.8838
25 1 2.6447 46.8653 -31.0075
17 1 5.43532 43.2092 -30.58
12 1 6.77455 45.6415 -31.3513
11 1 6.92423 45.9869 -30.4716
10 1 6.90495 46.95 -30.3101
20 1 4.20748 43.8977 -32.3957
19 1 4.81218 43.4479 -31.7325
41 1 4.69601 43.9298 -27.9984
42 1 5.31582 44.6697 -28.2805
43 1 5.9901 44.8079 -27.5651
22 1 2.71855 44.7705 -32.2682
21 1 3.59243 44.5408 -32.0782
45 1 7.26775 44.6369 -26.6715
44 1 6.33422 44.6322 -26.7153
9 1 7.30366 46.8315 -29.3709
8 1 8.22937 46.6421 -29.5574
26 1 3.05023 47.7197 -30.8836
30 1 1.88261 48.2427 -29.0944
29 1 2.43704 48.1344 -29.8363
27 1 3.63784 48.4563 -30.6679
28 1 3.38393 48.3157 -29.7316
40 1 3.8645 43.602 -28.3728
48 1 9.45567 45.1581 -26.7697
49 1 10.2767 44.7264 -27.1137
1 1 11.3384 46.037 -27.4159
2 1 11.6909 46.4915 -28.2039
36 1 2.7333 45.1774 -29.1428
38 1 3.63072 45.1744 -27.9728
39 1 3.73434 44.2822 -27.6963
37 1 2.82516 44.7436 -28.2845
47 1 8.53928 44.9258 -27.0906
46 1 7.82994 44.3879 -27.4386
4 1 10.1928 47.327 -27.6085
34 1 1.39892 45.7724 -29.9626
33 1 1.14895 46.707 -30.0762
35 1 1.81435 45.6105 -29.1044
7 1 9.18577 46.4542 -29.258
6 1 9.28669 47.412 -29.2665
5 1 9.64122 47.2109 -28.3964
32 1 1.92657 47 -29.5096
31 1 1.21648 47.596 -29.1836
50 1 11.1499 45.1401 -27.181
3 1 10.8384 47.008 -28.2838
170 1 41.9207 -17.7567 -4.62775
171 1 41.5486 -18.4682 -4.11848
172 1 41.9712 -17.8174 -3.51857
173 1 41.4512 -18.1431 -2.74892
169 1 42.3363 -17.642 -5.49724
168 1 43.0032 -17.0226 -5.81885
167 1 43.5805 -17.7538 -5.57114
164 1 45.9248 -17.7787 -4.98983
163 1 46.7528 -17.5262 -4.6555
162 1 46.9142 -16.6247 -4.36095
179 1 42.2221 -17.3225 -1.00399
180 1 42.7989 -17.7786 -0.330069
176 1 41.044 -19.4026 -2.01512
175 1 40.8191 -18.9827 -2.84822
174 1 41.784 -18.9884 -2.53356
165 1 45.0958 -18.3702 -5.15713
166 1 44.3405 -18.2858 -5.7349
161 1 47.3046 -16.1917 -3.60574
160 1 47.7592 -15.4083 -3.38399
157 1 46.8433 -13.5765 -2.53991
158 1 47.286 -14.4528 -2.68454
177 1 41.3939 -18.8359 -1.28964
178 1 41.5354 -18.0167 -0.871662
181 1 42.7784 -18.6509 -0.67747
183 1 44.0483 -19.0681 -1.13263
182 1 43.6785 -18.3035 -0.788313
184 1 44.9165 -18.5387 -0.812942
185 1 45.8627 -18.7428 -1.07176
153 1 47.1378 -14.3955 -0.32014
159 1 46.9998 -14.8879 -3.48183
154 1 46.5182 -13.8358 -0.852564
155 1 45.93 -14.4046 -1.3966
156 1 45.9992 -14.0336 -2.29122
186 1 46.3664 -18.383 -1.80475
187 1 46.1965 -17.484 -1.56298
151 1 48.19 -14.8976 -0.219577
200 1 48.793 -15.5779 -0.0511983
152 1 47.9555 -14.0589 -0.665621
188 1 45.6829 -17.3661 -0.824442
189 1 44.873 -17.4017 -0.338781
191 1 45.0415 -17.719 1.21506
196 1 47.1149 -16.5173 1.50446
197 1 47.9696 -16.64 1.06509
198 1 47.6594 -16.4217 0.221581
199 1 48.515 -16.5536 -0.206242
195 1 46.8193 -17.1321 0.873546
190 1 45.4388 -17.238 0.411167
192 1 44.3452 -17.1102 1.68658
193 1 45.2518 -16.8325 1.86996
194 1 46.0317 -17.1108 1.39531
ITEM: TIMESTEP
7100000
ITEM: NUMBER OF ATOMS
100
ITEM: BOX BOUNDS ff ff ff
-5.0000000000000000e+01 5.0000000000000000e+01
-5.0000000000000000e+01 5.0000000000000000e+01
-5.0000000000000000e+01 5.0000000000000000e+01
ITEM: ATOMS id type x y z
3 1 8.83585 41.6845 -26.5143
2 1 8.48863 41.4081 -25.6348
7 1 7.35714 40.1105 -25.7424
8 1 6.6608 39.4421 -25.6904
6 1 6.98216 40.493 -26.5833
5 1 7.59922 41.2082 -26.6482
4 1 8.38263 40.7408 -26.434
1 1 8.56582 42.3177 -25.5066
50 1 8.78275 43.2103 -25.9049
9 1 6.00898 39.9331 -25.0457
47 1 10.6357 42.4019 -24.9788
11 1 5.90116 41.0754 -24.0592
10 1 5.61824 40.7901 -25.0043
48 1 10.5732 43.3696 -25.242
49 1 9.67118 43.3242 -25.5502
12 1 6.50551 41.8803 -24.3138
39 1 12.5642 37.9946 -24.5286
40 1 12.4539 38.921 -24.3763
38 1 12.0491 37.2875 -24.1688
44 1 10.9722 40.6361 -24.4332
46 1 11.3341 41.711 -24.8332
45 1 11.1847 41.4239 -23.897
14 1 7.2029 43.0683 -23.1889
13 1 6.5144 42.8118 -23.8101
15 1 7.86292 42.8693 -22.5475
16 1 8.19777 42.2043 -21.8308
17 1 7.8703 42.0788 -20.8955
37 1 11.7238 36.4612 -24.4789
36 1 11.4858 35.9086 -23.7312
42 1 11.7778 39.8903 -25.7399
41 1 12.3366 39.6623 -24.9439
43 1 10.9822 40.242 -25.3276
19 1 7.88818 43.3163 -19.9092
18 1 7.80886 43.0075 -20.8845
31 1 10.9909 37.5883 -22.0525
34 1 10.5128 36.8704 -23.1974
32 1 11.5878 36.9447 -22.3419
33 1 11.322 37.4071 -23.1763
35 1 10.6267 36.3704 -23.9789
22 1 9.67328 42.6691 -20.1402
20 1 8.05414 42.6801 -19.1739
21 1 8.71887 42.671 -19.8864
29 1 10.3007 37.8732 -20.4712
30 1 10.5376 37.2852 -21.2217
28 1 9.34519 38.0923 -20.3941
27 1 9.52661 39.0661 -20.4061
26 1 9.57267 40.0058 -20.2258
23 1 9.77273 42.1634 -20.9498
25 1 10.1201 40.754 -20.4964
24 1 9.59605 41.2782 -21.2012
178 1 47.6576 -16.3706 -2.87552
172 1 45.9944 -20.1204 -1.49209
173 1 46.202 -19.1681 -1.63372
174 1 46.2132 -18.7706 -2.50943
176 1 46.4332 -17.6982 -3.03784
175 1 45.8417 -17.9594 -2.26419
177 1 46.9028 -16.904 -2.7428
180 1 47.1092 -14.5318 -2.36976
179 1 47.2751 -15.466 -2.60576
169 1 45.5835 -20.3563 0.096635
171 1 45.2104 -20.5606 -1.01183
170 1 45.284 -21.183 -0.243022
181 1 47.3764 -13.6689 -2.60621
182 1 47.9998 -14.0396 -1.97364
183 1 47.8572 -14.7641 -1.36638
184 1 46.9062 -14.6644 -1.39559
167 1 45.3294 -20.5507 1.84398
168 1 45.8348 -20.4196 1.06207
197 1 47.5423 -16.0759 3.96331
196 1 47.3868 -15.8327 3.02461
195 1 47.025 -14.9992 2.80351
191 1 44.9981 -13.5114 1.60298
192 1 45.7691 -13.105 2.0625
193 1 46.0595 -13.7517 2.64218
194 1 46.1085 -14.6715 2.87603
190 1 44.3813 -13.8665 0.962598
189 1 44.6277 -14.7975 1.00264
188 1 44.8624 -14.6532 0.047327
185 1 46.7816 -14.3716 -0.442297
186 1 46.0289 -13.848 -0.166683
163 1 43.0212 -22.5011 2.1442
164 1 43.653 -22.0633 1.45108
166 1 45.0003 -21.0175 1.10731
165 1 44.1162 -21.154 1.44843
199 1 46.5492 -16.2937 3.46872
198 1 46.7204 -16.0043 4.36562
187 1 45.3614 -14.038 0.598609
161 1 42.6567 -21.0345 3.01817
162 1 42.5859 -21.6655 2.27636
160 1 42.7527 -21.4012 3.86971
159 1 43.659 -21.0362 3.85365
154 1 46.1053 -19.1211 2.79241
153 1 45.5106 -18.4448 3.39577
151 1 47.4026 -17.9403 3.5246
200 1 47.2158 -16.9906 3.41485
152 1 46.4158 -18.2022 3.44074
158 1 44.2108 -20.5283 3.24342
156 1 45.7396 -19.9419 3.5429
157 1 44.8362 -20.0527 3.80824
155 1 46.5095 -19.3535 3.59675
ITEM: TIMESTEP
7200000
ITEM: NUMBER OF ATOMS
100
ITEM: BOX BOUNDS ff ff ff
-5.0000000000000000e+01 5.0000000000000000e+01
-5.0000000000000000e+01 5.0000000000000000e+01
-5.0000000000000000e+01 5.0000000000000000e+01
ITEM: ATOMS id type x y z
18 1 5.10883 43.3617 -25.9591
20 1 5.84535 42.4858 -26.4111
21 1 6.29768 41.6518 -26.2623
22 1 6.81538 41.495 -27.1486
31 1 6.72726 40.4169 -24.0493
17 1 5.45347 42.6704 -25.3807
16 1 5.81252 41.8045 -25.2631
15 1 5.34677 41.4406 -24.4725
29 1 8.27988 39.9593 -23.9617
30 1 7.62884 40.6078 -24.0982
19 1 5.34743 43.2387 -26.9154
26 1 8.35823 40.2206 -25.8647
23 1 7.69928 41.5669 -27.4954
24 1 8.03555 40.9319 -26.8887
25 1 8.04443 39.9324 -26.7363
11 1 3.1961 39.9705 -22.883
10 1 3.22177 39.4429 -22.0948
12 1 3.84646 40.2254 -23.4826
13 1 4.15823 40.8495 -24.1363
32 1 6.475 39.657 -23.5525
14 1 4.44987 41.433 -24.8612
36 1 4.75861 40.6651 -21.0332
35 1 4.7603 39.9721 -21.742
34 1 5.27298 40.4062 -22.4185
33 1 6.09124 39.9608 -22.6142
28 1 7.97542 39.4911 -24.7632
27 1 8.68208 39.4356 -25.4038
47 1 6.55669 37.5382 -16.8781
8 1 3.13257 38.7335 -20.4839
9 1 3.44605 38.9118 -21.3812
46 1 6.44769 37.0163 -16.0452
45 1 5.64438 37.4801 -16.278
37 1 4.97152 39.9809 -20.3903
38 1 5.106 39.5407 -19.5792
39 1 5.0249 38.8658 -20.3147
5 1 2.24522 37.01 -19.7631
4 1 2.73771 36.3175 -19.4308
7 1 3.70805 37.9231 -20.4021
6 1 2.86291 37.7108 -19.9332
49 1 6.36345 36.0902 -17.9038
48 1 6.71628 36.7474 -17.3463
50 1 5.79581 36.2793 -17.1409
1 1 5.10729 36.2563 -17.7957
44 1 5.26376 37.9297 -17.04
43 1 4.77968 37.1124 -17.245
41 1 4.84978 37.7679 -18.8161
42 1 5.27599 37.4498 -17.9863
40 1 5.29836 38.2861 -19.5177
3 1 3.66191 36.3266 -19.1021
2 1 4.23011 36.3192 -18.3165
172 1 39.2476 -18.9002 10.0346
173 1 38.7496 -18.212 10.54
167 1 36.9799 -17.7416 10.317
168 1 36.8609 -18.4772 10.8072
169 1 36.8115 -19.4323 10.794
171 1 38.2906 -18.9088 9.6663
170 1 37.5211 -19.166 10.2037
177 1 39.1073 -17.2127 12.1114
175 1 39.8908 -16.935 10.3334
176 1 39.6781 -16.9291 11.3485
174 1 39.4086 -17.6875 10.0288
162 1 35.3783 -14.6068 12.2548
166 1 36.2834 -17.1285 10.5554
159 1 35.3082 -12.5328 12.7587
160 1 35.0209 -13.3263 12.2351
161 1 34.8402 -14.1252 11.6528
164 1 36.6288 -15.9144 11.6741
163 1 36.0955 -15.1819 12.0143
165 1 36.6387 -16.8654 11.4008
178 1 39.7596 -16.956 12.7913
179 1 40.0218 -17.2935 13.6487
180 1 40.9185 -17.0649 14.1434
158 1 35.9937 -11.9314 12.3042
157 1 35.3321 -11.3324 11.9369
199 1 34.1751 -10.7475 13.9261
200 1 33.8444 -9.8381 13.8694
181 1 41.4732 -16.3346 14.4521
156 1 34.4789 -11.0133 12.0362
155 1 34.329 -11.9334 11.9704
154 1 33.4994 -11.8267 12.5072
153 1 32.8915 -11.0575 12.3973
152 1 33.1268 -10.8122 13.322
151 1 33.7643 -10.1582 12.9923
198 1 34.3265 -11.5076 14.3693
197 1 35.1581 -12.0582 14.3154
183 1 39.7092 -15.8603 13.669
190 1 36.5204 -15.0978 14.3835
189 1 36.5145 -15.1998 15.3621
187 1 37.7895 -16.4495 15.1981
188 1 36.9666 -16.0181 15.4671
186 1 38.363 -16.5988 15.9292
182 1 40.6757 -16.0641 13.9174
184 1 38.9328 -16.122 14.1749
196 1 35.3009 -12.9682 14.5171
195 1 34.7802 -13.7204 14.8369
185 1 38.9311 -16.4799 15.1111
191 1 35.5173 -15.1268 14.458
192 1 34.7165 -15.397 14.1032
194 1 33.8576 -13.8924 14.9311
193 1 34.2481 -14.5293 14.356
ITEM: TIMESTEP
7300000
ITEM: NUMBER OF ATOMS
100
ITEM: BOX BOUNDS ff ff ff
-5.0000000000000000e+01 5.0000000000000000e+01
-5.0000000000000000e+01 5.0000000000000000e+01
-5.0000000000000000e+01 5.0000000000000000e+01
ITEM: ATOMS id type x y z
50 1 1.80245 34.2301 -27.681
48 1 2.45842 33.2296 -26.8715
47 1 3.30029 33.7444 -27.2423
46 1 4.21329 34.0454 -27.0824
4 1 1.08703 32.8673 -26.3677
2 1 0.753006 34.2357 -27.7566
8 1 0.767126 35.6045 -25.7196
7 1 0.742367 34.7977 -26.1342
5 1 0.732305 33.6135 -25.8898
3 1 1.17256 33.5607 -27.0732
1 1 1.34562 34.6793 -28.3783
49 1 2.39073 34.1993 -26.8783
45 1 5.10366 34.4367 -27.1685
43 1 6.11501 33.0648 -26.3375
9 1 0.477828 36.4179 -26.1948
44 1 5.54757 33.6225 -26.9535
12 1 -1.05479 35.7043 -24.6557
11 1 -1.00685 35.9441 -25.6151
13 1 -0.381753 36.3714 -24.4801
6 1 -0.0417758 34.2133 -25.9195
10 1 -0.352111 35.9841 -26.3328
40 1 6.76508 33.9133 -25.3554
41 1 6.06562 33.3259 -24.9987
42 1 5.43399 32.9471 -25.6621
15 1 -0.0330929 35.2317 -24.4557
17 1 1.48134 35.9238 -24.3955
14 1 0.161356 35.8586 -23.7917
16 1 0.866184 35.2546 -24.7415
18 1 1.93773 36.5066 -23.7789
20 1 2.9602 36.6474 -22.7423
19 1 2.37958 35.9704 -23.1565
39 1 6.95363 33.5486 -24.5581
21 1 2.77273 35.9719 -22.1075
36 1 5.92288 31.9191 -23.4547
38 1 6.89514 32.8793 -23.8459
37 1 6.64892 31.9806 -24.0324
35 1 5.69144 32.3315 -22.5834
26 1 4.36439 33.5852 -21.4531
34 1 6.21571 33.1115 -22.8081
27 1 4.16293 33.823 -20.5124
28 1 4.55465 32.9215 -20.4878
23 1 3.73349 35.1559 -21.0346
32 1 6.95076 34.1997 -21.341
33 1 6.35388 33.6144 -21.9412
22 1 3.63115 35.8863 -21.6231
25 1 3.6798 33.5635 -22.079
29 1 5.2407 32.8129 -21.0964
31 1 6.07008 33.991 -20.987
30 1 5.20672 33.6995 -20.6463
24 1 3.56136 34.5387 -21.7809
194 1 35.8914 -18.6716 5.85853
193 1 36.8052 -18.8506 6.19472
195 1 35.4398 -18.0831 6.49096
196 1 34.9298 -17.3296 6.77125
197 1 35.4965 -16.5741 6.50824
190 1 36.4938 -19.8922 7.94609
191 1 36.4432 -19.3176 7.13156
192 1 37.3287 -19.0807 6.94226
155 1 33.429 -15.6892 9.19509
151 1 33.1754 -14.7787 7.53768
152 1 32.8172 -15.6794 7.21513
200 1 33.7544 -15.3272 7.09355
199 1 34.4522 -16.0176 7.26867
198 1 35.4422 -16.0522 7.31734
188 1 36.2347 -18.4474 8.17323
158 1 32.6091 -16.5314 11.2326
189 1 36.5748 -19.2574 8.65405
185 1 36.3122 -17.1625 8.52988
186 1 35.4663 -17.5118 8.71476
157 1 32.7251 -16.124 10.3564
156 1 33.6701 -15.9816 10.1145
154 1 33.0562 -16.4493 8.69496
184 1 36.4492 -17.7305 9.23307
153 1 32.8031 -16.4433 7.75615
187 1 35.7277 -18.404 8.97217
160 1 33.0648 -15.9891 12.4619
159 1 33.4132 -16.2507 11.6825
166 1 36.6522 -16.1628 12.8866
161 1 33.5656 -16.6456 12.903
164 1 35.6002 -17.6528 12.9127
165 1 35.9198 -16.7883 12.9882
183 1 37.043 -18.3421 9.65125
182 1 37.9884 -18.5075 10.0353
181 1 38.8863 -18.7784 10.0109
168 1 36.7559 -16.4408 14.5009
180 1 39.2106 -18.5867 10.8978
179 1 38.8862 -17.9942 11.5193
178 1 38.9611 -17.0245 11.7411
162 1 34.4698 -16.6965 13.179
163 1 34.6251 -17.539 12.7835
167 1 37.0341 -16.7174 13.6352
170 1 37.551 -16.8279 15.4452
171 1 37.8666 -16.2881 16.2197
169 1 37.751 -16.3063 14.6976
175 1 39.3543 -16.5386 14.3392
176 1 39.3548 -16.6226 13.3119
177 1 38.7368 -16.7904 12.6235
173 1 39.1913 -17.4821 15.9677
174 1 39.2946 -16.8425 15.2932
172 1 38.183 -17.2275 16.1476
ITEM: TIMESTEP
7400000
ITEM: NUMBER OF ATOMS
100
ITEM: BOX BOUNDS ff ff ff
-5.0000000000000000e+01 5.0000000000000000e+01
-5.0000000000000000e+01 5.0000000000000000e+01
-5.0000000000000000e+01 5.0000000000000000e+01
ITEM: ATOMS id type x y z
23 1 -2.82441 26.689 -16.4046
24 1 -2.6432 25.7063 -16.4121
27 1 -1.25538 24.9882 -14.4102
21 1 -3.97391 26.0498 -15.1865
20 1 -4.81487 26.5168 -14.8768
22 1 -3.48189 26.7807 -15.6639
25 1 -1.84752 25.2795 -16.0259
26 1 -1.75286 25.5323 -15.0618
29 1 -0.41158 25.4207 -13.9177
28 1 -0.416338 25.1835 -14.8283
12 1 -8.01442 26.6358 -11.8283
19 1 -5.2497 26.3321 -15.7336
18 1 -5.63219 25.7141 -15.1162
17 1 -6.03568 26.6197 -14.8795
15 1 -6.18121 26.2142 -13.0588
16 1 -6.38693 26.3625 -13.9602
32 1 -1.04232 24.8203 -12.0231
31 1 -1.25023 25.6525 -12.457
30 1 -1.14878 25.2594 -13.2952
34 1 -1.33012 25.9947 -10.6774
33 1 -0.965201 25.5573 -11.4403
11 1 -7.74968 25.817 -11.3484
10 1 -7.52462 25.6662 -10.4872
13 1 -7.9449 26.0706 -12.5915
14 1 -7.10219 26.3324 -12.9162
6 1 -5.11917 27.1552 -11.9774
5 1 -4.56914 27.9331 -12.0453
4 1 -4.44294 27.7634 -12.9936
3 1 -3.79403 27.0333 -12.8734
2 1 -3.27525 27.7703 -12.9452
35 1 -0.615276 26.6335 -10.6468
36 1 -0.00800396 27.0056 -9.97777
37 1 0.437555 26.2136 -9.76626
1 1 -2.55712 28.2926 -12.5462
8 1 -5.70733 25.9599 -10.6685
9 1 -6.62628 25.7233 -10.8673
43 1 1.10633 28.5143 -10.1138
41 1 0.690936 27.5575 -8.75106
7 1 -5.6964 26.6607 -11.3386
45 1 0.382278 28.6274 -10.9784
39 1 0.904537 25.6192 -8.99497
40 1 0.813794 26.588 -8.75885
49 1 -1.98911 28.8868 -11.012
48 1 -1.59491 29.4205 -10.3248
47 1 -0.753226 29.0761 -10.6601
38 1 1.26847 25.7206 -9.89008
50 1 -1.92632 28.7748 -11.9464
42 1 1.25082 27.7929 -9.5414
44 1 0.20545 28.8127 -10.0097
46 1 -0.466866 28.2608 -11.1488
172 1 44.8283 -28.333 21.3585
173 1 45.342 -27.5262 21.1798
166 1 42.7153 -25.2209 22.7834
169 1 44.8685 -26.1285 22.4604
175 1 44.267 -26.7362 19.7022
170 1 44.8419 -27.0616 22.4825
171 1 45.0562 -27.9915 22.202
176 1 44.894 -26.1784 19.3333
174 1 44.7036 -27.1556 20.4922
167 1 43.5838 -24.9554 22.3164
168 1 44.4033 -25.3741 22.0466
163 1 40.6732 -26.6479 21.9913
164 1 40.9947 -26.1202 22.6864
165 1 41.8698 -25.5443 22.6028
162 1 39.7961 -26.9004 22.4255
177 1 45.0384 -25.3118 19.7241
179 1 46.1598 -24.8108 20.2219
181 1 46.3668 -24.5746 21.5193
178 1 45.8238 -24.7412 19.2872
157 1 40.2462 -28.9503 22.6059
156 1 40.8612 -29.6098 23.0647
154 1 41.9318 -29.8992 24.4288
160 1 41.1966 -28.1469 22.9176
159 1 41.0671 -27.9695 23.8058
161 1 40.5355 -27.5476 22.5501
180 1 46.1149 -23.9933 20.7935
183 1 45.1787 -24.4612 21.9352
182 1 45.9645 -24.6495 22.4659
158 1 40.3298 -28.546 23.4934
155 1 41.6093 -29.8522 23.6042
153 1 41.8695 -28.9712 24.2321
152 1 41.8862 -28.467 25.0314
151 1 42.3839 -28.3056 25.8652
200 1 42.6657 -27.6221 26.5008
198 1 43.0424 -25.9947 25.6649
196 1 43.444 -24.3187 25.9747
197 1 42.8925 -25.0264 25.5458
194 1 43.7689 -24.7334 25.0128
195 1 44.3481 -24.5668 25.7358
184 1 44.8138 -23.9243 22.674
185 1 45.0532 -23.1147 22.142
187 1 45.6919 -22.3195 23.2765
186 1 44.8236 -22.8179 23.017
199 1 42.8147 -26.8739 25.8488
192 1 43.5038 -24.337 23.4129
193 1 43.1833 -24.6867 24.2559
188 1 45.5874 -23.0836 23.9158
190 1 44.5117 -23.2731 24.6158
189 1 44.9241 -22.5142 24.2517
191 1 43.856 -23.7655 24.0558
ITEM: TIMESTEP
7500000
ITEM: NUMBER OF ATOMS
100
ITEM: BOX BOUNDS ff ff ff
-5.0000000000000000e+01 5.0000000000000000e+01
-5.0000000000000000e+01 5.0000000000000000e+01
-5.0000000000000000e+01 5.0000000000000000e+01
ITEM: ATOMS id type x y z
20 1 -2.97832 19.2568 -10.2891
21 1 -3.58587 18.6203 -10.5584
19 1 -2.33285 19.1128 -10.9842
23 1 -4.41842 19.8215 -10.55
22 1 -4.2405 19.1195 -11.2041
14 1 -1.55652 20.6886 -10.0886
24 1 -4.38416 20.3372 -9.76058
17 1 -1.10415 18.4355 -10.4769
15 1 -0.759064 20.2003 -10.2544
25 1 -4.15944 21.2319 -10.0057
18 1 -2.02124 18.1757 -10.6341
16 1 -0.635024 19.2521 -10.1329
13 1 -0.762943 20.8703 -9.54378
12 1 -0.0555635 20.9736 -8.90765
11 1 0.307302 21.7548 -8.4766
36 1 -3.37507 20.803 -6.21105
32 1 -4.64723 22.5077 -7.10805
28 1 -4.94511 22.9561 -9.42584
10 1 0.559396 22.0705 -7.62191
9 1 1.47056 22.1738 -7.21114
8 1 0.73002 22.1074 -6.51028
26 1 -4.44974 22.0095 -10.5792
27 1 -4.87102 22.8438 -10.4127
35 1 -3.75955 21.582 -6.5276
34 1 -4.34591 22.1102 -6.04618
37 1 -2.98541 20.8684 -5.23491
38 1 -2.08567 20.6308 -5.20043
39 1 -1.30377 20.8453 -5.71817
33 1 -5.23445 22.1819 -6.38371
41 1 0.0774483 19.6858 -5.51569
40 1 -0.497901 20.3275 -5.83199
31 1 -4.78774 23.3128 -7.57711
30 1 -4.38014 22.6105 -8.15349
29 1 -4.86453 22.2147 -8.87781
5 1 0.703504 21.6661 -4.75872
7 1 1.14889 21.3974 -6.01949
6 1 1.06841 22.2619 -5.4924
49 1 -1.49175 21.5171 -2.08628
44 1 -0.935185 19.8646 -3.73277
43 1 -0.123894 19.4108 -4.0018
1 1 -0.447779 22.8599 -2.35594
50 1 -0.530164 21.9252 -2.50091
42 1 0.133837 20.214 -4.61297
3 1 0.400584 22.0318 -3.81444
4 1 0.115835 21.1956 -4.15705
2 1 -0.0439982 22.7237 -3.3159
47 1 -2.62327 19.945 -2.14715
48 1 -2.04765 20.6782 -2.16422
46 1 -2.01927 19.6006 -2.85269
45 1 -1.25221 20.1195 -2.8705
180 1 45.195 -27.1307 12.3359
181 1 46.034 -26.6294 12.1484
179 1 44.7773 -26.5887 11.6812
185 1 46.7431 -29.3544 13.6857
182 1 46.6861 -27.3015 12.2866
183 1 46.2006 -27.875 12.982
176 1 44.4687 -25.6794 13.056
177 1 43.9085 -25.9585 12.2778
178 1 44.8303 -25.7093 12.0262
188 1 45.0845 -29.7608 14.9113
187 1 45.9834 -29.7542 15.1803
189 1 44.6592 -29.1969 14.2863
184 1 46.82 -28.5411 13.2503
186 1 45.862 -29.398 14.2026
194 1 42.7032 -27.2668 14.1697
174 1 45.125 -24.3858 12.026
175 1 44.5442 -24.7502 12.7404
170 1 43.2828 -22.5339 12.8699
168 1 41.4681 -22.0094 12.9286
169 1 42.3206 -22.3348 12.6472
167 1 40.9894 -21.9337 12.0252
166 1 40.7557 -22.6408 11.4232
164 1 41.3052 -23.4314 12.8339
165 1 41.4593 -23.1955 11.9207
190 1 45.0942 -28.6362 13.6315
191 1 44.545 -28.0611 14.2178
192 1 43.7165 -27.9054 14.7603
193 1 43.1459 -27.193 15.0101
173 1 45.2931 -23.6922 12.6711
195 1 42.0395 -26.8226 14.6792
196 1 41.2598 -26.219 14.8102
172 1 44.8135 -23.2162 13.4229
171 1 44.1546 -22.6538 13.0266
198 1 40.987 -25.2294 16.5199
197 1 41.3705 -25.7399 15.6948
162 1 40.463 -22.802 14.2493
163 1 40.7534 -22.8263 13.2864
199 1 41.5756 -24.9984 17.2996
152 1 42.0082 -23.311 18.7068
153 1 42.5677 -22.4929 18.7158
151 1 41.7477 -23.9706 18.0769
200 1 42.1114 -24.1876 17.1825
160 1 40.866 -22.0443 15.5155
161 1 40.3372 -22.7248 15.165
159 1 40.4697 -21.9257 16.4098
158 1 40.5666 -21.4263 17.2518
154 1 42.4326 -21.7297 19.274
156 1 41.2116 -21.1075 18.8437
155 1 42.1283 -20.9008 18.9951
157 1 41.3321 -21.4112 17.8655
ITEM: TIMESTEP
7600000
ITEM: NUMBER OF ATOMS
100
ITEM: BOX BOUNDS ff ff ff
-5.0000000000000000e+01 5.0000000000000000e+01
-5.0000000000000000e+01 5.0000000000000000e+01
-5.0000000000000000e+01 5.0000000000000000e+01
ITEM: ATOMS id type x y z
16 1 -13.2237 31.7988 -8.90915
15 1 -12.9751 32.0556 -9.86837
18 1 -13.5611 32.1794 -7.29231
17 1 -13.0904 31.645 -7.94372
12 1 -10.4987 31.5436 -9.22296
14 1 -12.0765 32.184 -9.73171
13 1 -11.4416 31.7072 -9.21707
11 1 -9.62539 31.7907 -9.3711
9 1 -8.77182 32.6753 -8.32965
10 1 -9.6501 32.5273 -8.71578
23 1 -15.371 31.3271 -5.60963
22 1 -15.5833 31.8229 -6.36638
19 1 -14.0667 31.3964 -7.08603
21 1 -14.7996 32.0583 -6.83195
20 1 -14.5594 31.8797 -7.76657
7 1 -8.26644 33.6234 -6.97629
6 1 -8.77682 34.4415 -6.88598
43 1 -14.0015 34.2526 -5.05508
8 1 -8.79246 32.9408 -7.45435
3 1 -10.2798 36.7484 -6.60147
49 1 -12.1487 34.7978 -5.98873
24 1 -14.7748 30.6986 -5.17657
25 1 -14.749 29.7821 -4.67464
37 1 -14.6786 32.7073 -3.56913
38 1 -14.8884 32.1335 -2.8046
5 1 -9.32973 35.2191 -6.47963
40 1 -13.5417 33.166 -3.21613
42 1 -13.8202 34.5562 -4.11723
41 1 -14.059 33.8957 -3.48869
44 1 -13.6253 33.5914 -4.46274
45 1 -13.0913 33.3816 -5.22947
46 1 -12.4068 33.5064 -5.93392
2 1 -10.7385 35.9801 -6.35567
4 1 -9.58982 36.1418 -6.18962
47 1 -12.516 33.9716 -6.75336
50 1 -11.8946 35.6779 -5.75565
48 1 -12.513 35.0004 -6.84554
1 1 -11.2199 36.4792 -5.7196
30 1 -16.084 30.5343 -3.7794
29 1 -15.9106 30.7728 -4.6954
28 1 -16.0151 29.863 -4.61148
27 1 -15.4462 29.2187 -4.04446
31 1 -16.5573 31.1956 -3.2826
32 1 -17.3351 30.7819 -3.54964
36 1 -15.5661 32.8727 -3.7005
26 1 -14.5167 29.3715 -3.86942
35 1 -16.2826 32.2664 -3.28479
39 1 -13.9444 32.3758 -2.79066
33 1 -17.7043 31.5033 -2.95846
34 1 -17.068 32.1603 -2.78734
192 1 42.7521 -29.9308 11.2182
191 1 42.0512 -29.2531 11.1733
198 1 44.4666 -32.3931 12.2668
193 1 43.4889 -29.8538 11.9138
194 1 43.2953 -30.7696 12.2651
196 1 43.0088 -31.4776 12.8999
195 1 42.4053 -31.0577 12.3147
197 1 43.6925 -32.1423 12.7988
190 1 42.5436 -28.4976 11.549
189 1 41.6498 -28.6156 12.0006
186 1 42.7532 -28.4886 13.6693
187 1 43.2518 -28.3922 12.8819
188 1 42.3001 -28.478 12.6995
152 1 44.3008 -33.7874 14.371
151 1 44.9015 -33.4538 13.7264
200 1 45.4377 -33.4407 12.9332
199 1 45.1428 -33.0881 12.0887
185 1 42.6924 -28.6704 14.6211
183 1 40.8605 -28.8419 14.6687
184 1 41.8036 -29.0923 14.6486
154 1 45.1123 -34.853 15.2745
153 1 45.2578 -34.0781 14.645
157 1 46.3812 -33.7643 16.4084
158 1 47.2823 -33.7112 16.7781
159 1 47.4719 -32.7976 17.0756
181 1 39.6589 -30.3579 14.2162
180 1 39.906 -30.4787 15.1132
182 1 40.0855 -29.5333 14.4305
167 1 46.8656 -29.088 17.537
166 1 47.7057 -28.8099 17.8898
155 1 45.3751 -35.2009 16.1286
179 1 40.203 -30.5609 16.0547
178 1 40.8314 -31.2297 15.8705
156 1 45.7056 -34.28 15.952
160 1 48.1447 -32.2099 17.4432
171 1 43.2571 -28.5414 17.8842
170 1 44.1074 -28.9726 18.0018
161 1 47.5867 -31.668 18.0538
163 1 47.0072 -30.2893 18.9685
162 1 46.9038 -31.1176 18.4757
168 1 45.9518 -29.32 17.5676
169 1 45.0509 -29.1797 17.687
165 1 47.9136 -29.6395 18.3534
164 1 47.1059 -30.0905 17.9812
177 1 41.5915 -30.7542 16.2033
174 1 41.6097 -28.9858 16.3497
176 1 41.9197 -29.9844 15.6478
172 1 42.5145 -29.0011 17.4855
175 1 41.024 -29.6455 15.8501
173 1 42.2521 -29.6748 16.8085
ITEM: TIMESTEP
7700000
ITEM: NUMBER OF ATOMS
100
ITEM: BOX BOUNDS ff ff ff
-5.0000000000000000e+01 5.0000000000000000e+01
-5.0000000000000000e+01 5.0000000000000000e+01
-5.0000000000000000e+01 5.0000000000000000e+01
ITEM: ATOMS id type x y z
42 1 -7.25521 39.1794 -8.71285
43 1 -7.39604 38.5447 -7.87579
41 1 -6.61477 38.8796 -9.45848
40 1 -6.20536 39.0944 -8.60849
39 1 -5.51782 38.3057 -8.57935
50 1 -8.67624 37.7022 -4.58801
48 1 -7.89406 37.7992 -5.46317
49 1 -8.03164 37.0715 -4.86767
47 1 -7.63955 38.165 -6.29658
26 1 -7.03038 41.4128 -6.67356
27 1 -7.88722 41.2787 -6.18988
44 1 -7.97262 39.3742 -7.77972
25 1 -6.98562 42.2477 -6.3013
22 1 -8.8241 42.3766 -7.41539
24 1 -7.80706 42.8363 -6.50822
23 1 -7.8289 42.6453 -7.47243
38 1 -4.65322 37.9585 -8.87531
37 1 -4.26364 37.7256 -8.07427
1 1 -9.38471 37.2142 -4.14136
45 1 -8.26725 38.7521 -7.0948
46 1 -8.52565 38.0241 -6.52108
28 1 -7.67456 40.3939 -5.83861
30 1 -6.84224 39.1958 -6.70976
29 1 -7.42672 39.9649 -6.72262
21 1 -9.193 42.1269 -6.56573
20 1 -9.82858 41.5319 -6.20478
36 1 -4.52449 37.7954 -7.18696
2 1 -8.9108 37.1231 -3.29786
3 1 -7.98841 37.1656 -2.92282
34 1 -5.11385 38.5962 -5.51079
35 1 -4.56855 38.314 -6.27772
4 1 -7.41226 37.6107 -2.31956
32 1 -5.92564 39.3878 -5.92543
31 1 -5.98444 38.7319 -6.55091
33 1 -5.36754 39.3875 -5.08643
18 1 -9.67481 41.7667 -4.9472
19 1 -10.1537 41.0952 -5.41557
5 1 -7.66535 38.3908 -2.72591
7 1 -8.4433 39.9062 -2.31508
6 1 -8.03035 39.0581 -2.0917
8 1 -9.42411 39.9825 -2.29247
9 1 -10.1679 40.383 -1.93113
10 1 -10.8581 40.1013 -2.68689
17 1 -8.89245 42.2955 -4.93745
16 1 -8.38701 41.4665 -4.94766
12 1 -9.60686 40.1528 -3.84277
11 1 -10.0503 40.4922 -3.04477
15 1 -7.74593 41.0106 -4.45424
14 1 -8.10153 41.1465 -3.54626
13 1 -9.06282 40.975 -3.71915
160 1 42.7014 -40.1433 9.302
163 1 44.0798 -40.3739 7.49358
162 1 43.528 -40.6789 8.20907
161 1 42.861 -40.9914 8.75582
159 1 43.4059 -39.6129 8.91846
157 1 44.3114 -38.2981 8.05942
158 1 43.8933 -39.0948 8.28925
172 1 46.6526 -39.2211 8.49677
164 1 44.7916 -40.8796 7.12573
167 1 44.9786 -40.0962 8.52187
165 1 45.7538 -40.7785 6.81173
166 1 45.5172 -40.3796 7.73176
173 1 46.4649 -38.3374 8.9121
174 1 47.0591 -38.7331 9.5286
156 1 43.6358 -37.6064 8.0433
155 1 43.7319 -37.9232 8.92109
154 1 44.3619 -37.9367 9.65784
168 1 45.0307 -40.6518 9.25275
171 1 46.9497 -40.0832 8.74733
169 1 45.6253 -41.3792 9.31852
170 1 46.3373 -40.8203 9.14517
175 1 47.9133 -38.427 9.7558
176 1 48.6288 -37.8061 9.88363
177 1 49.1695 -37.0043 10.1753
153 1 43.7502 -38.6806 9.93875
152 1 43.0363 -38.3494 10.5151
179 1 47.9967 -36.7598 9.58951
181 1 46.3882 -35.6501 9.25355
151 1 42.3213 -38.0259 11.1232
200 1 42.7842 -37.7766 12.0929
178 1 48.9727 -36.4456 9.32723
184 1 44.8613 -36.1042 10.2866
194 1 41.4531 -35.2511 14.1887
193 1 41.8679 -35.4438 13.3642
182 1 46.1796 -34.8738 9.9322
183 1 45.7096 -35.6372 10.2608
180 1 47.1191 -36.3136 9.55333
199 1 42.0867 -37.1066 12.2265
198 1 41.8976 -37.4425 13.0914
197 1 41.8599 -36.623 13.7135
196 1 42.5737 -36.7584 14.4253
195 1 42.1573 -35.9048 14.632
187 1 45.2652 -37.095 12.2309
186 1 45.1431 -36.5318 11.4673
189 1 43.9875 -36.1682 13.0594
192 1 42.8334 -35.5353 13.598
191 1 43.5694 -35.1408 14.0375
190 1 44.4238 -35.4066 13.5686
188 1 44.3563 -37.0319 12.646
185 1 45.4125 -36.8158 10.5281
ITEM: TIMESTEP
7800000
ITEM: NUMBER OF ATOMS
100
ITEM: BOX BOUNDS ff ff ff
-5.0000000000000000e+01 5.0000000000000000e+01
-5.0000000000000000e+01 5.0000000000000000e+01
-5.0000000000000000e+01 5.0000000000000000e+01
ITEM: ATOMS id type x y z
27 1 -6.22112 37.9261 -9.89419
24 1 -4.58419 36.2796 -10.0499
28 1 -6.2521 38.7607 -9.33878
26 1 -5.866 37.1144 -9.43349
25 1 -5.55279 36.4178 -9.93846
29 1 -6.83311 39.1694 -9.94336
22 1 -4.91083 36.3223 -8.97882
16 1 -5.72495 39.4217 -8.57187
17 1 -6.03135 38.507 -8.39042
23 1 -4.12198 35.8533 -9.32695
20 1 -5.92052 36.9839 -7.40015
21 1 -5.60605 36.6381 -8.26988
30 1 -5.94988 39.3901 -10.3893
31 1 -6.30424 40.3385 -10.4735
32 1 -6.19519 40.833 -9.68208
35 1 -7.38796 40.7277 -9.42481
19 1 -5.28898 37.5879 -7.84495
18 1 -6.19279 37.5837 -8.21134
34 1 -7.40088 39.7894 -9.36034
15 1 -6.60226 39.7374 -8.37629
14 1 -7.25422 39.975 -7.76709
33 1 -6.41102 39.9905 -9.35277
36 1 -7.94216 41.5826 -9.35583
37 1 -8.01321 40.9284 -8.64791
38 1 -7.36841 41.5586 -8.2603
39 1 -6.67634 41.8816 -7.61519
40 1 -6.90637 42.838 -7.45257
41 1 -7.80506 42.4799 -7.64036
42 1 -8.50655 41.909 -7.87337
155 1 40.7993 -40.1277 -4.42308
151 1 41.011 -40.5675 -6.44812
199 1 39.7785 -39.5167 -6.31776
200 1 40.1062 -40.3649 -6.22724
192 1 36.7031 -38.3037 -5.0975
193 1 37.3481 -38.1273 -5.8249
11 1 -9.02446 39.7647 -6.74396
10 1 -9.43997 40.5146 -7.14899
9 1 -10.0474 41.1943 -6.81496
12 1 -8.53497 40.0969 -7.49116
13 1 -7.98449 39.3821 -7.59019
8 1 -10.5662 40.4958 -7.31019
7 1 -10.5801 40.1331 -6.39897
44 1 -8.1393 41.4368 -6.05289
45 1 -7.84285 42.2953 -5.73648
43 1 -8.22837 41.4757 -7.0674
154 1 40.439 -40.7764 -5.13382
157 1 39.8893 -40.2898 -3.49507
156 1 40.7687 -40.8646 -3.64675
153 1 41.1267 -41.3694 -5.17935
158 1 39.1947 -40.9171 -3.60896
159 1 38.7439 -40.8876 -2.69666
152 1 41.6825 -41.101 -5.9338
198 1 39.0006 -39.8294 -6.67875
191 1 36.5604 -38.5751 -4.21747
197 1 38.6919 -40.167 -5.8058
196 1 38.7428 -39.2225 -5.50587
195 1 38.0092 -39.0747 -6.1811
194 1 37.1704 -39.0622 -5.71977
6 1 -11.3665 39.9509 -6.90296
5 1 -11.7561 40.451 -7.74142
4 1 -11.6788 41.3428 -7.52675
46 1 -6.97417 42.2846 -5.48138
160 1 37.7226 -40.9422 -2.79357
161 1 37.522 -40.5749 -1.8461
190 1 37.4818 -38.498 -4.15006
189 1 38.1185 -37.8573 -3.82835
188 1 37.5574 -37.0615 -3.59814
3 1 -11.5463 41.8045 -6.69591
2 1 -11.5942 42.1239 -5.80729
1 1 -10.6395 42.1085 -5.90339
50 1 -9.89436 42.1783 -5.30377
49 1 -9.02897 41.9746 -4.87071
48 1 -8.33033 42.5594 -4.69907
47 1 -7.50291 42.9226 -4.96335
163 1 36.5317 -39.4158 -1.47007
162 1 37.3613 -39.6941 -1.76679
186 1 37.7056 -37.86 -1.90733
187 1 37.6037 -37.5138 -2.78595
184 1 36.6874 -36.8179 -1.31804
164 1 35.816 -39.352 -0.849862
166 1 35.8398 -39.4531 0.776719
165 1 36.0728 -38.9107 -0.00269551
185 1 36.8145 -37.7664 -1.67467
179 1 36.1102 -35.8267 1.96489
183 1 35.781 -37.05 -0.949407
182 1 35.705 -36.3195 -0.340482
167 1 36.502 -39.522 1.46669
168 1 37.2293 -40.0456 1.13627
177 1 36.0556 -35.8592 3.03263
180 1 36.3674 -35.9671 1.06166
178 1 35.4468 -35.3871 2.50032
181 1 36.1843 -35.6728 0.168902
169 1 38.1867 -39.6372 1.04621
170 1 37.7879 -38.9436 1.59995
171 1 37.6097 -38.1491 2.00617
172 1 37.9672 -37.4087 2.57154
175 1 37.3979 -35.6625 3.05648
173 1 37.8858 -36.5369 2.24015
174 1 37.8353 -36.5118 3.22944
176 1 36.7454 -35.7764 3.71227
ITEM: TIMESTEP
7900000
ITEM: NUMBER OF ATOMS
100
ITEM: BOX BOUNDS ff ff ff
-5.0000000000000000e+01 5.0000000000000000e+01
-5.0000000000000000e+01 5.0000000000000000e+01
-5.0000000000000000e+01 5.0000000000000000e+01
ITEM: ATOMS id type x y z
18 1 -14.2244 30.411 -12.6383
17 1 -13.4418 30.9273 -12.7782
21 1 -16.5338 31.4682 -11.7408
16 1 -13.0319 30.5856 -12.01
15 1 -12.7155 31.5248 -12.21
19 1 -14.9894 31.0045 -12.8708
20 1 -15.8975 31.3474 -12.5434
22 1 -16.4023 32.4158 -11.5654
23 1 -16.685 33.319 -11.6429
24 1 -16.4778 34.242 -11.7774
14 1 -13.134 32.3654 -12.2746
13 1 -12.919 33.257 -12.5951
12 1 -12.3439 33.936 -12.1464
11 1 -11.5005 33.656 -11.8187
10 1 -11.7283 33.8321 -10.9486
9 1 -11.4671 34.6658 -10.5425
7 1 -12.0451 35.3806 -9.48391
27 1 -17.234 33.6863 -9.87699
26 1 -16.7751 34.3807 -10.289
25 1 -17.1061 34.6639 -11.1715
8 1 -11.8186 35.5779 -10.3853
4 1 -12.3293 37.2552 -8.29119
6 1 -11.8764 35.8973 -8.7116
5 1 -12.6777 36.4491 -8.76977
3 1 -12.3471 37.3506 -9.24449
28 1 -16.6515 33.7828 -9.1577
29 1 -17.4535 33.6684 -8.58545
30 1 -17.5117 33.0629 -7.82191
50 1 -14.554 37.7515 -8.79071
49 1 -14.829 37.6698 -7.88604
1 1 -13.7057 38.0948 -8.96531
2 1 -12.8105 38.1919 -9.36054
151 1 38.863 -42.4334 -5.17037
154 1 40.3097 -42.0761 -6.35905
155 1 39.447 -42.2655 -6.70081
152 1 39.5821 -41.8925 -5.51863
156 1 39.236 -41.5513 -7.27909
153 1 40.5079 -42.0009 -5.31341
158 1 40.0797 -40.9277 -6.02593
157 1 40.0759 -41.1961 -6.95415
31 1 -16.6696 32.5965 -7.89498
32 1 -16.6513 32.6786 -6.94494
33 1 -15.9866 32.535 -6.2651
47 1 -14.5985 37.5891 -6.12484
48 1 -14.373 37.6983 -7.08408
46 1 -15.1478 37.0423 -6.71402
193 1 39.061 -43.892 -3.13084
192 1 39.8295 -43.2514 -2.80397
199 1 38.239 -42.9512 -4.28167
200 1 39.1569 -42.485 -4.26842
191 1 40.339 -44.0449 -2.69146
166 1 43.4745 -42.73 -4.45286
159 1 40.9675 -40.6425 -5.76319
160 1 41.1929 -40.5214 -4.80805
163 1 41.7866 -42.0613 -6.28295
164 1 42.3709 -42.0818 -5.43993
165 1 42.8887 -42.8269 -5.22526
161 1 41.9846 -40.9441 -5.09413
162 1 42.045 -41.1957 -5.97784
170 1 44.7409 -41.1412 -4.58983
34 1 -15.1172 32.9904 -6.36151
35 1 -14.6596 33.8186 -6.43226
44 1 -16.1938 36.2245 -6.30577
45 1 -15.5147 36.7081 -5.88851
196 1 37.808 -43.9122 -4.40774
195 1 38.6112 -44.3262 -4.66019
197 1 37.1007 -43.8675 -3.7943
194 1 39.1376 -44.5914 -3.86652
198 1 37.3088 -42.8899 -4.06196
190 1 41.1499 -43.5336 -2.91975
186 1 40.0804 -41.4514 -2.17384
185 1 40.9008 -41.3155 -1.75167
187 1 39.9145 -42.3282 -1.91967
188 1 40.8056 -42.467 -2.28083
189 1 41.6281 -42.7473 -2.63424
184 1 40.5754 -40.6312 -1.0576
183 1 41.2799 -40.271 -1.65117
182 1 42.1909 -40.4521 -1.55218
167 1 44.3525 -42.5556 -4.87578
169 1 45.5545 -41.4686 -4.95327
168 1 45.1445 -42.1396 -4.3631
172 1 43.9588 -40.6145 -4.00014
173 1 43.6634 -39.8184 -3.58779
171 1 44.5798 -40.1082 -4.6118
176 1 41.6982 -39.4018 -3.52151
175 1 42.5658 -39.7266 -3.37752
37 1 -14.2661 35.148 -6.3964
38 1 -14.7316 35.6815 -5.71991
36 1 -14.7618 34.5527 -7.00081
39 1 -15.4033 35.8059 -4.92228
41 1 -16.083 35.09 -5.2688
42 1 -16.5796 35.9106 -5.1145
43 1 -16.5616 36.7621 -5.56538
181 1 42.5787 -40.6688 -2.39563
180 1 42.4944 -39.6599 -2.36424
174 1 43.2651 -39.2234 -2.91604
179 1 42.1779 -38.8105 -1.98236
178 1 42.4273 -38.0161 -2.61505
177 1 42.1118 -38.5654 -3.42691
40 1 -15.8058 35.0784 -4.3724
ITEM: TIMESTEP
8000000
ITEM: NUMBER OF ATOMS
100
ITEM: BOX BOUNDS ff ff ff
-5.0000000000000000e+01 5.0000000000000000e+01
-5.0000000000000000e+01 5.0000000000000000e+01
-5.0000000000000000e+01 5.0000000000000000e+01
ITEM: ATOMS id type x y z
183 1 47.5778 -38.3188 -13.6004
184 1 47.5296 -37.4238 -13.9628
179 1 47.6262 -40.7381 -12.637
180 1 48.3512 -40.4503 -13.2107
181 1 48.7692 -39.6304 -13.1934
182 1 47.9227 -39.2309 -13.5031
185 1 47.6485 -36.9368 -13.1651
186 1 47.8387 -37.0044 -12.2075
187 1 47.3953 -37.8309 -11.9419
188 1 48.0086 -37.895 -11.2104
189 1 47.5622 -37.0341 -11.1193
178 1 47.9841 -41.6608 -12.7651
177 1 47.3306 -42.201 -13.1648
176 1 47.0646 -42.5302 -12.3238
196 1 43.9149 -36.5057 -10.9253
192 1 46.6939 -37.4304 -9.99031
193 1 46.1039 -36.8884 -10.5114
195 1 44.5669 -37.1751 -10.8456
191 1 47.1287 -38.286 -9.94255
190 1 47.5947 -37.5137 -10.2763
173 1 47.705 -41.545 -10.799
175 1 47.4713 -42.6461 -11.4527
174 1 48.1255 -42.3935 -10.7429
153 1 42.9565 -38.0096 -9.05374
199 1 41.6037 -35.915 -10.4123
198 1 42.3423 -35.5233 -10.9162
197 1 43.0256 -36.1579 -11.1612
194 1 45.2289 -36.52 -10.6964
171 1 46.9918 -40.6287 -9.47765
169 1 48.1616 -40.9145 -9.03823
156 1 42.0901 -39.2827 -7.41767
161 1 44.8346 -40.5742 -4.9564
172 1 47.6473 -40.8049 -10.1351
170 1 47.5741 -40.1813 -8.92055
155 1 41.629 -38.6565 -7.94123
154 1 42.3415 -38.4384 -8.49776
152 1 43.3669 -37.1728 -8.83197
200 1 41.8117 -36.7169 -9.9435
151 1 42.7026 -36.8539 -9.53031
165 1 46.2929 -42.4827 -6.93013
167 1 47.677 -41.8544 -7.57317
166 1 46.7653 -41.7965 -7.28205
168 1 48.1898 -41.49 -8.33469
157 1 42.2416 -40.2718 -7.4594
160 1 43.9111 -40.4237 -5.27229
163 1 44.9254 -42.0554 -5.79782
164 1 45.4535 -42.36 -6.49953
158 1 42.7025 -40.0535 -6.65324
159 1 43.2186 -40.1417 -5.82903
162 1 44.5026 -41.298 -5.45109
1 1 -30.5491 36.1743 -4.97354
3 1 -29.9362 36.2798 -6.1521
4 1 -30.027 35.7521 -6.92983
2 1 -30.7541 35.9531 -5.84084
50 1 -29.8612 36.7475 -4.60054
7 1 -28.2017 34.7842 -7.11706
5 1 -29.2076 35.2508 -7.07695
6 1 -28.8414 34.7293 -7.83195
8 1 -28.2095 34.8869 -6.12382
49 1 -29.3246 37.4331 -5.02611
48 1 -28.7484 38.1974 -5.14744
47 1 -27.8842 37.8087 -5.3471
46 1 -28.0639 36.9637 -5.86424
26 1 -28.3531 30.1927 -2.35786
25 1 -28.722 30.0361 -1.46807
27 1 -28.3292 31.0727 -2.81194
29 1 -27.2342 32.3818 -3.5315
22 1 -31.0798 30.53 -2.79598
20 1 -30.5568 31.5701 -2.78677
19 1 -31.3387 32.1633 -2.70976
14 1 -29.64 32.6656 -3.32111
13 1 -29.2565 33.4644 -3.06658
12 1 -28.8774 33.4672 -3.91421
10 1 -27.8471 33.4428 -4.92638
11 1 -28.1587 34.0754 -4.31172
9 1 -27.8887 34.0275 -5.66028
39 1 -27.4707 35.0247 -2.23571
40 1 -27.9024 35.6155 -2.86114
44 1 -27.1136 36.9901 -5.11503
45 1 -27.2232 37.3207 -6.08617
43 1 -26.2153 36.8239 -4.82584
24 1 -29.5867 30.496 -1.63737
28 1 -27.7439 31.8429 -2.99192
30 1 -26.5515 32.2751 -4.16547
21 1 -31.0141 31.1597 -2.07934
23 1 -30.3964 30.3324 -2.17955
31 1 -25.942 32.1981 -3.36992
32 1 -25.3535 31.9507 -4.10504
33 1 -25.4161 32.9252 -4.14915
34 1 -25.0537 33.7951 -3.93834
35 1 -25.6349 34.0091 -3.17952
18 1 -32.2254 32.1082 -3.0492
15 1 -30.4409 32.4701 -3.76859
16 1 -31.2354 32.9851 -3.86838
17 1 -31.9151 33.0418 -3.15569
38 1 -27.1683 34.1834 -1.91508
37 1 -26.375 34.5935 -1.681
36 1 -25.9033 34.6531 -2.53012
41 1 -27.1923 36.0243 -3.30853
42 1 -26.753 36.4307 -4.03906
ITEM: TIMESTEP
8100000
ITEM: NUMBER OF ATOMS
100
ITEM: BOX BOUNDS ff ff ff
-5.0000000000000000e+01 5.0000000000000000e+01
-5.0000000000000000e+01 5.0000000000000000e+01
-5.0000000000000000e+01 5.0000000000000000e+01
ITEM: ATOMS id type x y z
156 1 38.5141 -30.2756 -13.391
155 1 39.1101 -29.927 -14.0037
154 1 38.4115 -29.7906 -14.6979
194 1 41.2518 -33.1215 -11.9903
195 1 41.2751 -32.6618 -12.8332
152 1 39.2455 -30.3994 -15.4645
153 1 38.3042 -30.5419 -15.2795
151 1 39.8171 -31.1219 -15.8099
199 1 40.3574 -31.8333 -14.7276
192 1 39.7292 -34.1272 -11.6383
157 1 37.8873 -30.9389 -12.983
163 1 36.8902 -30.7634 -12.0963
193 1 40.538 -33.8217 -12.0277
159 1 37.3075 -32.6252 -12.5134
158 1 37.8574 -31.8843 -12.8088
162 1 36.3119 -30.8044 -12.8549
161 1 35.9293 -31.5953 -12.4861
200 1 40.679 -31.4823 -15.577
198 1 40.6456 -32.4918 -15.4073
197 1 40.8677 -33.0766 -14.6662
196 1 41.2525 -32.6472 -13.8885
186 1 40.7657 -35.3375 -8.09451
188 1 40.2937 -34.5043 -9.28112
187 1 40.6746 -35.3458 -9.0009
189 1 40.9141 -34.8119 -9.98917
190 1 40.2912 -34.4515 -10.5974
191 1 39.3828 -34.2548 -10.696
168 1 36.9829 -30.6218 -10.2702
170 1 36.221 -32.3076 -10.4103
169 1 36.4092 -31.3693 -10.1178
166 1 35.5296 -29.6504 -10.0624
167 1 36.1444 -30.3608 -9.89903
165 1 36.0137 -29.489 -10.8385
164 1 36.579 -30.0804 -11.4296
160 1 36.8405 -31.7841 -12.5088
179 1 37.0865 -36.2145 -6.90746
180 1 37.9771 -35.8591 -7.14772
185 1 40.3517 -35.4527 -7.161
184 1 39.6223 -35.2012 -7.73862
178 1 36.8475 -35.2906 -6.65777
181 1 37.4482 -35.4646 -7.85798
173 1 36.0395 -33.332 -9.25311
174 1 36.4761 -33.7332 -8.47959
172 1 35.5368 -33.9147 -9.83776
171 1 35.7314 -33.0383 -10.1145
183 1 39.1666 -35.8838 -8.14102
177 1 36.5357 -35.6857 -7.55282
176 1 36.5714 -35.3951 -8.43165
182 1 38.2181 -36.0488 -8.24118
175 1 36.2044 -34.5758 -8.84214
30 1 -31.9914 20.6153 0.35321
31 1 -31.384 20.9217 -0.389436
32 1 -30.7165 20.9145 -1.05855
33 1 -30.788 21.7719 -1.44149
34 1 -29.9737 21.2074 -1.64822
22 1 -33.9033 22.1903 1.75227
23 1 -33.5279 23.0367 1.86894
24 1 -32.6254 22.7888 1.7928
25 1 -31.8745 22.5181 1.29487
26 1 -31.923 21.7533 1.82483
27 1 -31.1286 22.2377 2.19257
28 1 -30.9419 21.923 1.27671
29 1 -31.5037 21.2275 0.89794
20 1 -35.8325 21.939 1.85671
18 1 -36.7914 22.095 0.578533
17 1 -37.2495 21.6612 -0.167322
19 1 -36.4111 21.5122 1.21541
37 1 -29.1456 21.5183 0.262218
35 1 -29.7344 21.9108 -1.05339
36 1 -29.2275 22.3148 -0.249521
16 1 -37.7274 21.268 0.536191
21 1 -34.8749 21.9283 1.63704
46 1 -31.3084 21.5408 3.77042
13 1 -37.6725 21.4069 2.07498
14 1 -38.0442 22.0282 1.42138
12 1 -37.2774 20.6429 2.43145
11 1 -36.3792 20.2786 2.41178
38 1 -29.9078 21.4227 0.819584
39 1 -30.1131 22.3768 0.91318
15 1 -38.5049 21.7966 0.627183
40 1 -29.6157 23.1857 1.01035
9 1 -35.3938 20.6823 3.40268
8 1 -35.1229 20.7206 4.32989
7 1 -34.6734 19.9631 4.75428
49 1 -32.9317 22.0543 5.82943
48 1 -32.457 21.7225 5.06815
47 1 -31.6754 21.92 4.57028
44 1 -30.013 22.1292 3.09284
45 1 -30.9003 22.379 3.56136
10 1 -35.6915 20.9237 2.5065
42 1 -28.6726 21.9737 1.94381
43 1 -29.0923 21.8863 2.76065
41 1 -28.846 22.8418 1.50767
5 1 -34.1977 19.3827 6.23893
6 1 -34.5629 19.2447 5.35079
4 1 -33.3619 18.9577 5.94768
3 1 -32.6533 18.8259 5.34411
2 1 -32.3208 19.7298 5.40902
1 1 -32.773 20.6007 5.34
50 1 -32.6814 21.1322 6.14894
ITEM: TIMESTEP
8200000
ITEM: NUMBER OF ATOMS
100
ITEM: BOX BOUNDS ff ff ff
-5.0000000000000000e+01 5.0000000000000000e+01
-5.0000000000000000e+01 5.0000000000000000e+01
-5.0000000000000000e+01 5.0000000000000000e+01
ITEM: ATOMS id type x y z
197 1 39.8966 -33.6002 -6.20261
196 1 40.2989 -34.4034 -5.78412
18 1 -30.7787 7.34175 -8.2734
17 1 -30.2545 8.1962 -8.31243
11 1 -34.2876 10.5133 -7.63781
12 1 -33.4096 10.4148 -7.35554
194 1 39.65 -33.6694 -4.44633
195 1 40.4059 -33.9814 -4.94536
192 1 40.3011 -32.3132 -3.92708
199 1 40.26 -34.1438 -7.71791
198 1 40.593 -34.0271 -6.81929
200 1 39.8641 -33.3317 -7.33696
193 1 40.3013 -33.3627 -3.8805
191 1 40.7163 -32.5373 -4.76848
190 1 41.3063 -32.6628 -5.50416
154 1 38.2598 -31.628 -5.90268
156 1 37.365 -31.2442 -5.56296
155 1 37.4738 -32.2407 -5.67726
153 1 38.7042 -32.0834 -6.69597
151 1 39.1006 -33.0673 -6.77827
189 1 41.955 -32.6683 -4.74878
157 1 36.5887 -31.1927 -4.83749
20 1 -31.5153 7.1895 -6.87393
19 1 -30.6104 7.46946 -7.29986
16 1 -30.6246 9.11067 -8.36541
14 1 -31.6952 10.5918 -8.13336
15 1 -31.1342 9.90368 -8.45824
10 1 -34.5735 10.7216 -8.52811
13 1 -32.5059 10.2024 -7.75705
9 1 -35.5264 10.77 -8.15856
8 1 -36.2179 10.8413 -7.4752
186 1 42.7129 -33.9259 -3.46418
158 1 36.9036 -30.9764 -3.99155
152 1 39.249 -32.347 -7.4052
160 1 37.3521 -29.9129 -2.81112
159 1 36.8021 -30.1316 -3.48061
187 1 42.0988 -34.0031 -4.20735
188 1 41.7827 -33.5596 -5.00749
23 1 -29.3248 7.49671 -6.03275
21 1 -30.8523 6.57095 -6.56083
22 1 -29.9613 6.80706 -6.40156
5 1 -36.4872 10.5265 -6.2054
4 1 -35.6496 10.4078 -6.68877
41 1 -29.4646 12.8026 -5.67286
7 1 -36.9511 11.386 -7.19341
6 1 -36.3318 11.4287 -6.42752
46 1 -31.3964 13.3614 -7.28481
43 1 -29.8994 12.5079 -7.01566
44 1 -30.4167 11.7935 -7.32654
42 1 -29.8204 13.2634 -6.4209
47 1 -32.1047 12.9427 -6.79113
45 1 -30.7577 12.7069 -7.51058
185 1 43.4044 -33.2308 -3.48975
161 1 38.1138 -30.5039 -2.75399
179 1 42.5142 -30.4899 -3.9226
178 1 42.7969 -30.7401 -3.03499
176 1 42.4651 -31.6908 -2.67844
177 1 43.2823 -31.3943 -2.42884
24 1 -29.8666 7.21687 -5.30359
25 1 -29.4154 7.36846 -4.47947
26 1 -30.325 7.35712 -4.29107
27 1 -30.8692 7.56039 -4.9997
28 1 -31.581 7.96016 -4.4944
31 1 -31.1926 9.10202 -4.58649
32 1 -30.9989 9.65138 -3.76009
38 1 -28.5353 11.8576 -3.52159
37 1 -28.6048 11.4372 -2.62676
40 1 -28.9636 12.0178 -5.313
39 1 -28.4687 12.1589 -4.41442
3 1 -34.9784 11.1043 -6.80428
2 1 -34.5939 11.9994 -7.04787
1 1 -34.0466 12.5909 -6.52617
48 1 -32.6689 13.481 -7.28181
50 1 -33.877 13.2886 -5.96211
49 1 -33.4567 13.679 -6.73703
183 1 44.6317 -31.9361 -3.06968
184 1 44.2115 -32.6504 -3.64826
181 1 43.9527 -30.6968 -3.70492
162 1 38.5218 -29.7255 -2.24209
163 1 38.4772 -30.5319 -1.63272
164 1 39.326 -30.7925 -1.32757
180 1 43.3354 -30.3645 -4.42707
182 1 44.2522 -31.0904 -2.86448
174 1 42.1568 -31.714 -1.02259
175 1 42.0554 -32.1419 -1.94226
173 1 41.7431 -30.9038 -1.28734
29 1 -31.3554 7.61289 -3.62015
30 1 -31.1077 8.53317 -3.76953
33 1 -30.1869 9.18126 -3.83343
35 1 -28.8442 10.1865 -4.16143
34 1 -29.2944 9.45945 -3.85798
36 1 -28.8627 10.8863 -3.43916
165 1 39.7433 -30.1389 -0.721508
166 1 39.7642 -29.4367 -0.0326913
171 1 41.9536 -29.7274 -0.361679
172 1 41.4557 -30.5833 -0.420894
167 1 40.0266 -28.6021 0.33394
168 1 40.9991 -28.6142 0.470176
170 1 42.3754 -28.8834 -0.663512
169 1 41.7458 -28.5068 -0.0968651
ITEM: TIMESTEP
8300000
ITEM: NUMBER OF ATOMS
100
ITEM: BOX BOUNDS ff ff ff
-5.0000000000000000e+01 5.0000000000000000e+01
-5.0000000000000000e+01 5.0000000000000000e+01
-5.0000000000000000e+01 5.0000000000000000e+01
ITEM: ATOMS id type x y z
18 1 -31.1016 11.9289 -18.5477
17 1 -31.0258 12.7997 -18.3772
31 1 -25.8706 10.9716 -17.6205
32 1 -25.8759 11.7663 -16.9643
34 1 -25.3311 12.8417 -18.1761
19 1 -30.4937 12.0497 -19.302
20 1 -29.6407 11.4766 -19.279
21 1 -29.4694 11.5082 -18.3499
16 1 -30.1424 13.2452 -18.4865
14 1 -29.8002 14.8181 -17.9338
15 1 -29.5566 14.0435 -18.4677
29 1 -27.3262 10.9171 -17.6361
30 1 -26.5839 10.6424 -18.1728
13 1 -29.1932 14.4968 -17.2629
11 1 -27.4942 14.1052 -17.4539
12 1 -28.4485 13.9183 -17.5258
33 1 -25.5632 12.645 -17.2422
39 1 -22.2216 12.2815 -15.9232
40 1 -21.4522 12.5745 -16.3775
43 1 -21.8248 13.4475 -13.8427
35 1 -24.6655 13.4712 -17.8858
36 1 -24.3705 12.832 -17.2464
22 1 -28.5056 11.6314 -18.1559
24 1 -27.3033 11.9469 -16.6696
25 1 -27.4379 11.5812 -15.7849
26 1 -27.8937 10.75 -16.1999
27 1 -27.9058 10.0308 -16.8364
23 1 -27.7822 11.8605 -17.5071
28 1 -27.508 9.97001 -17.7478
48 1 -23.1829 12.4749 -14.6461
45 1 -21.9794 11.7972 -13.8726
46 1 -22.3866 11.7171 -14.695
44 1 -21.5556 12.5577 -14.1445
9 1 -26.5109 14.3932 -16.9405
10 1 -27.3687 15.0097 -17.2201
8 1 -25.8361 14.7507 -16.3461
42 1 -21.9647 13.3293 -14.8251
41 1 -21.7427 13.2653 -15.8375
37 1 -23.8887 13.1912 -16.498
38 1 -22.9997 12.8068 -16.1416
50 1 -23.1388 13.9753 -14.3672
49 1 -23.0416 13.3527 -15.0526
47 1 -23.3567 11.5657 -14.8547
5 1 -25.7683 13.5397 -14.6918
7 1 -26.0981 14.009 -15.8636
6 1 -26.5768 13.2974 -15.2752
1 1 -23.7015 14.643 -14.7603
3 1 -24.7618 14.8286 -14.1317
2 1 -23.8866 15.0409 -13.9158
4 1 -25.2634 13.9368 -13.9753
181 1 45.5733 -30.5024 -0.53692
182 1 44.948 -29.93 -0.985625
183 1 44.8419 -29.545 -1.89725
166 1 44.1988 -28.0456 -1.36377
165 1 44.4894 -27.2441 -0.852354
179 1 45.6827 -32.2109 0.241636
176 1 44.272 -32.2107 -0.897588
184 1 45.7372 -29.2001 -1.76315
178 1 45.4507 -32.6869 -0.559943
180 1 45.774 -31.3746 -0.164963
185 1 46.5641 -29.5418 -2.13758
172 1 42.6103 -30.5154 -0.965419
173 1 43.4347 -30.8167 -0.447198
186 1 46.3389 -28.813 -2.68685
171 1 42.1701 -29.8201 -1.57121
169 1 43.3526 -29.2297 -1.38651
170 1 42.4584 -28.9787 -1.14129
168 1 44.1164 -29.0618 -0.799997
167 1 44.6264 -28.3139 -0.530394
163 1 43.8336 -25.6558 -0.800722
162 1 44.1503 -24.7267 -0.904085
164 1 43.7056 -26.5972 -0.762096
174 1 43.4903 -31.529 -1.19318
175 1 44.348 -31.5656 -1.65459
177 1 45.1154 -32.1023 -1.24608
191 1 47.7806 -29.5268 0.82419
190 1 47.313 -29.0839 0.101446
192 1 47.6213 -30.4385 1.02616
189 1 46.8883 -28.2951 -0.18766
188 1 46.6435 -28.752 -0.999089
187 1 46.3657 -28.3615 -1.84586
194 1 48.7142 -30.9891 2.39073
193 1 47.983 -30.5799 1.93345
153 1 43.9066 -27.7384 3.44164
152 1 44.0291 -28.4099 2.67522
155 1 43.4936 -27.1981 2.18282
154 1 43.2414 -27.1929 3.10157
159 1 43.6777 -25.3073 0.855416
158 1 44.0275 -25.875 1.5839
160 1 43.9004 -24.6256 0.231463
161 1 44.7459 -24.4184 -0.215092
157 1 43.6164 -26.5665 1.05317
156 1 43.1807 -27.3444 1.27347
197 1 47.1179 -29.0659 3.01289
195 1 48.3871 -30.322 3.04521
196 1 47.643 -29.8399 2.64278
200 1 45.3058 -27.7758 2.75477
151 1 44.8593 -28.556 2.38428
198 1 47.0428 -28.1182 2.88889
199 1 46.1294 -28.4119 2.76342
ITEM: TIMESTEP
8400000
ITEM: NUMBER OF ATOMS
100
ITEM: BOX BOUNDS ff ff ff
-5.0000000000000000e+01 5.0000000000000000e+01
-5.0000000000000000e+01 5.0000000000000000e+01
-5.0000000000000000e+01 5.0000000000000000e+01
ITEM: ATOMS id type x y z
48 1 -20.2086 13.7015 -9.88078
43 1 -17.5145 14.4438 -10.5172
9 1 -19.1096 17.0279 -9.98057
10 1 -18.223 16.9401 -10.2282
11 1 -18.2365 16.0473 -9.89157
12 1 -17.3152 15.9125 -9.55096
46 1 -19.1303 13.3992 -9.49268
49 1 -20.6639 13.7019 -10.7135
47 1 -19.97 12.8787 -9.49097
45 1 -18.4309 12.8707 -9.8183
44 1 -17.9316 13.7001 -10.0063
50 1 -21.5876 13.6917 -10.3385
1 1 -21.7175 14.1829 -9.52583
41 1 -16.473 13.9407 -10.8352
42 1 -17.142 14.3515 -11.3768
39 1 -15.6066 13.5938 -9.18858
3 1 -21.4485 15.9106 -9.35343
6 1 -20.6716 17.4025 -8.34864
7 1 -20.2623 17.5414 -9.18612
8 1 -19.9581 16.7757 -9.64241
40 1 -16.0866 13.9417 -9.92293
33 1 -14.3519 15.9916 -7.33224
13 1 -16.6591 16.2977 -10.0497
14 1 -15.7159 15.9978 -9.74412
17 1 -16.2157 18.5113 -9.96529
18 1 -16.0771 19.2062 -9.27932
15 1 -15.597 16.9276 -9.98795
16 1 -15.6334 17.836 -10.2335
2 1 -21.6227 15.0783 -9.80865
37 1 -15.7078 14.1062 -7.96751
38 1 -16.3721 13.7123 -8.52109
35 1 -13.8316 14.2173 -7.77051
34 1 -14.021 15.1435 -7.72359
4 1 -21.2818 16.3744 -8.44624
5 1 -20.5204 16.5976 -7.93623
19 1 -16.0945 20.2157 -9.11547
21 1 -17.2981 20.1899 -8.5253
20 1 -17.0423 19.9855 -9.42983
32 1 -15.0325 16.6972 -7.51607
31 1 -15.076 16.6897 -6.51974
24 1 -16.7542 19.719 -6.25711
36 1 -14.8269 14.1797 -7.57095
23 1 -16.6517 19.212 -7.07701
22 1 -17.2462 19.5449 -7.74726
27 1 -16.0427 18.3311 -5.07493
30 1 -14.6249 17.5512 -6.33834
29 1 -14.5698 18.239 -5.65685
25 1 -17.2954 18.9712 -5.90148
26 1 -16.5594 18.3432 -5.8426
28 1 -15.2789 18.8226 -5.27016
189 1 36.4566 -26.7243 0.431856
190 1 36.6045 -26.2878 -0.412634
185 1 38.3441 -26.7555 0.712669
195 1 34.7965 -24.0524 1.32096
194 1 34.2341 -23.8397 0.571854
179 1 37.8112 -24.3943 1.14746
178 1 38.166 -23.9619 1.99142
176 1 38.8981 -22.3534 1.82432
177 1 38.4075 -23.1422 1.65102
167 1 37.0165 -20.0183 0.27814
166 1 36.7574 -20.1894 1.19216
175 1 39.5316 -21.6589 1.6609
187 1 37.7882 -26.1071 1.4986
188 1 36.8903 -26.1185 1.14494
191 1 36.2808 -25.5259 0.0872369
186 1 38.5771 -26.5881 1.63214
184 1 38.6846 -27.6728 0.548163
196 1 34.7875 -24.2021 2.30783
192 1 35.8294 -24.6912 -0.27773
193 1 34.9938 -24.2383 0.100105
183 1 38.8572 -27.3093 -0.368851
182 1 38.749 -26.3815 -0.130592
197 1 34.8563 -23.2409 2.11824
181 1 38.1868 -25.6134 -0.171003
180 1 38.1236 -24.7681 0.319065
163 1 36.5513 -21.5076 1.84631
168 1 37.2869 -20.5772 -0.49046
169 1 38.1832 -20.792 -0.605765
165 1 37.4379 -20.8195 1.69091
164 1 37.2161 -21.5926 1.19547
170 1 39.1131 -21.1821 -0.468344
174 1 40.4873 -21.8225 1.43938
173 1 40.2197 -21.0981 0.855156
171 1 39.1225 -20.7179 0.341531
199 1 34.741 -22.4087 3.80316
198 1 34.9827 -22.6462 2.90033
200 1 35.6698 -22.7103 3.83689
160 1 36.7995 -22.0296 3.7247
161 1 36.9984 -21.2283 3.25428
162 1 36.3487 -20.9822 2.67354
172 1 40.0337 -20.6315 0.0471822
151 1 35.5946 -21.9411 4.46221
152 1 34.9799 -21.3247 4.02487
153 1 35.6658 -20.6518 4.16387
154 1 35.9405 -20.8663 5.01832
155 1 36.071 -21.5905 5.70621
156 1 36.8635 -22.0603 5.89841
157 1 37.769 -21.6585 5.82818
159 1 37.2155 -21.4623 4.40371
158 1 37.7824 -22.0891 5.0038
ITEM: TIMESTEP
8500000
ITEM: NUMBER OF ATOMS
100
ITEM: BOX BOUNDS ff ff ff
-5.0000000000000000e+01 5.0000000000000000e+01
-5.0000000000000000e+01 5.0000000000000000e+01
-5.0000000000000000e+01 5.0000000000000000e+01
ITEM: ATOMS id type x y z
6 1 -22.9605 13.7741 -22.3358
8 1 -22.544 14.6849 -21.7979
9 1 -22.3526 15.3575 -21.0306
12 1 -22.1936 17.8563 -22.4131
7 1 -22.0802 13.8258 -21.965
11 1 -22.3511 17.2554 -21.6363
13 1 -22.6948 18.6583 -22.2645
34 1 -25.4738 13.628 -18.3649
35 1 -24.8491 13.8445 -17.6579
33 1 -25.2295 13.3643 -19.2911
1 1 -24.1766 16.7663 -21.6586
2 1 -23.9305 16.0408 -22.2875
3 1 -24.656 15.3664 -22.4026
4 1 -24.5266 14.549 -21.8628
10 1 -22.3724 16.3475 -21.2681
27 1 -26.5661 17.2919 -21.1417
25 1 -26.6485 18.9374 -20.222
26 1 -26.6251 18.1283 -20.7124
5 1 -23.831 14.1069 -22.2534
24 1 -25.761 19.0571 -19.909
23 1 -25.11 19.0091 -19.14
22 1 -24.2404 18.732 -19.4429
16 1 -21.3199 20.1587 -22.3122
14 1 -22.4553 19.415 -22.925
15 1 -21.5675 19.2842 -22.663
21 1 -23.345 18.4239 -19.4703
19 1 -22.6031 18.6021 -20.7083
20 1 -23.3115 18.1081 -20.3551
17 1 -21.5415 19.8229 -21.4436
18 1 -21.8333 18.939 -21.1959
38 1 -24.058 13.9277 -15.4944
36 1 -24.9966 13.3756 -16.8301
37 1 -24.5472 14.0818 -16.3948
32 1 -25.8403 14.1017 -19.3159
50 1 -24.1913 17.7053 -21.3189
28 1 -26.3291 16.8102 -20.2565
29 1 -26.1908 15.9081 -20.4617
30 1 -26.2005 15.3042 -19.7253
31 1 -25.4312 14.973 -19.2655
48 1 -24.8485 16.8349 -20.59
49 1 -24.6875 17.7733 -20.4856
39 1 -23.5003 13.4952 -16.1358
40 1 -22.569 13.3394 -16.2138
41 1 -22.5621 13.744 -17.0543
42 1 -22.8087 14.6302 -16.8637
43 1 -23.3716 15.1617 -17.3936
45 1 -23.5226 15.2276 -19.0299
46 1 -24.3561 15.4361 -19.4212
47 1 -24.7865 16.2316 -19.8245
44 1 -23.8057 15.4126 -18.1525
168 1 43.2578 -37.0325 -5.54801
162 1 40.4352 -36.8216 -7.66808
166 1 43.5667 -36.2819 -6.90251
167 1 43.9843 -36.8062 -6.16076
164 1 42.1412 -36.4557 -7.06435
163 1 41.2996 -36.7789 -7.1823
157 1 39.3896 -40.0665 -6.70317
156 1 40.2182 -40.4749 -6.71108
158 1 39.6673 -39.1666 -6.78004
159 1 39.4183 -38.8438 -7.65357
169 1 42.4468 -36.5487 -5.19455
171 1 42.9934 -37.0945 -4.20391
170 1 42.2841 -37.3893 -4.82409
160 1 39.1 -37.9415 -7.38769
161 1 40.12 -37.7184 -7.5182
194 1 40.1064 -35.0929 -6.30164
165 1 42.8115 -36.5355 -6.39885
191 1 39.3113 -33.3845 -7.3583
192 1 39.4322 -34.3326 -7.15737
189 1 40.159 -33.1804 -5.74048
190 1 39.9404 -32.9566 -6.74481
187 1 39.9191 -33.6946 -4.69977
188 1 40.626 -33.8696 -5.33521
183 1 41.5042 -33.317 -4.44886
181 1 42.2245 -32.9053 -3.45862
182 1 41.4218 -33.3438 -3.52034
186 1 40.3723 -34.0673 -3.97989
185 1 41.1774 -34.3581 -4.52593
184 1 41.9793 -34.0164 -3.99138
154 1 41.1779 -38.8722 -7.20482
155 1 40.6188 -39.6183 -7.00472
152 1 40.5707 -37.4062 -6.51022
199 1 39.3742 -36.3372 -5.08744
172 1 43.2239 -36.9908 -3.28077
197 1 39.0924 -35.0725 -4.62259
173 1 42.9665 -37.7715 -2.69338
195 1 39.5216 -34.4112 -5.87259
196 1 38.8927 -35.0484 -5.54272
174 1 42.5214 -37.048 -2.21061
193 1 39.6091 -35.3026 -7.13138
178 1 41.9633 -33.9423 -1.77512
179 1 42.4964 -33.9006 -2.61484
180 1 42.0484 -33.0833 -2.4781
153 1 40.7908 -38.3524 -6.47994
151 1 39.6762 -37.0262 -6.25378
200 1 39.5324 -36.095 -5.98437
198 1 39.4959 -35.8231 -4.29417
176 1 41.9121 -35.6678 -1.9957
175 1 42.4584 -36.354 -1.56846
177 1 41.8079 -34.9004 -1.51969
ITEM: TIMESTEP
8600000
ITEM: NUMBER OF ATOMS
100
ITEM: BOX BOUNDS ff ff ff
-5.0000000000000000e+01 5.0000000000000000e+01
-5.0000000000000000e+01 5.0000000000000000e+01
-5.0000000000000000e+01 5.0000000000000000e+01
ITEM: ATOMS id type x y z
25 1 -40.523 13.316 -13.807
36 1 -41.9998 14.3463 -11.8913
26 1 -40.234 14.0488 -14.3232
35 1 -41.0824 14.4697 -12.0547
164 1 40.075 -35.6754 -12.1505
167 1 37.5014 -36.3674 -12.4295
166 1 38.4799 -36.0338 -12.4043
165 1 39.1451 -35.5734 -11.9163
162 1 40.1562 -33.8827 -12.211
163 1 40.0475 -34.7531 -11.8884
172 1 34.5643 -35.7121 -10.6257
14 1 -43.9154 9.42748 -10.3402
13 1 -43.2714 8.69815 -10.2215
23 1 -41.2701 12.1282 -14.3566
22 1 -40.7536 12.1464 -13.5714
24 1 -40.8905 12.9579 -14.6349
38 1 -42.8992 12.9882 -11.4707
37 1 -42.3755 13.4959 -12.1205
27 1 -39.5149 14.6256 -14.005
28 1 -39.5557 15.3946 -13.3947
34 1 -40.6255 14.0384 -11.3492
29 1 -39.5238 15.5592 -12.4849
32 1 -40.3076 14.9174 -12.4153
33 1 -39.922 14.1225 -12.0642
30 1 -40.1182 16.1274 -12.0118
31 1 -40.7097 15.4124 -11.7391
171 1 35.2828 -36.2468 -11.0756
170 1 35.7769 -36.8262 -11.7156
169 1 36.5436 -36.7437 -11.1213
168 1 37.4243 -36.7649 -11.5402
156 1 37.9092 -34.6263 -9.56253
161 1 39.2264 -33.6283 -12.3416
160 1 38.6623 -34.1916 -11.717
159 1 38.896 -33.3269 -11.2632
158 1 38.7604 -33.9055 -10.4189
173 1 33.9371 -35.945 -9.88751
157 1 37.8105 -33.8013 -10.1922
174 1 34.8171 -36.1991 -9.56338
175 1 34.4909 -36.15 -8.60584
17 1 -42.4466 9.96126 -11.2816
15 1 -43.9002 10.0714 -11.037
12 1 -42.447 9.16957 -10.478
11 1 -42.1062 8.30929 -10.537
41 1 -45.0942 11.5758 -10.2036
16 1 -43.251 9.34933 -11.2077
19 1 -41.965 11.0461 -12.6812
20 1 -41.4308 11.7066 -12.2204
21 1 -41.007 11.3726 -13.0196
39 1 -43.6003 12.3822 -11.1524
40 1 -44.3592 11.9479 -10.688
154 1 37.1125 -35.1977 -8.48463
155 1 37.3547 -34.3472 -8.7992
180 1 31.7104 -34.9426 -8.21144
181 1 32.0675 -34.2898 -7.41603
178 1 33.1203 -35.4797 -9.02561
177 1 33.7345 -34.7281 -8.7502
179 1 32.6036 -34.8453 -8.56753
153 1 37.4849 -35.9303 -7.99468
182 1 32.3941 -33.5557 -7.98023
183 1 31.9618 -33.7669 -8.88199
184 1 31.5549 -33.1282 -8.30277
185 1 32.3536 -32.5989 -8.49198
176 1 34.6202 -35.1458 -8.63978
189 1 34.2654 -31.205 -7.83689
186 1 32.5685 -32.5453 -7.51163
187 1 33.0278 -31.7302 -7.94274
188 1 33.5475 -31.5943 -7.21961
7 1 -41.3474 9.98815 -8.7482
10 1 -41.4104 8.3357 -9.8493
9 1 -41.0834 9.23759 -9.87903
43 1 -44.9408 11.3666 -8.87079
42 1 -45.4528 10.9691 -9.54265
44 1 -45.0979 12.3911 -8.79859
18 1 -42.2409 10.18 -12.1825
200 1 35.7842 -36.6018 -8.39876
151 1 36.3797 -37.1815 -7.91087
152 1 37.1249 -36.6343 -7.42849
192 1 36.4873 -31.1378 -6.8021
191 1 35.6332 -31.6792 -7.00407
190 1 35.055 -30.9636 -7.21233
6 1 -40.4987 10.4495 -8.57901
5 1 -40.4419 11.3564 -8.19606
8 1 -40.7764 9.21726 -8.94478
4 1 -39.7462 11.6509 -7.54111
46 1 -43.9061 12.0709 -7.58837
47 1 -43.9844 11.4786 -6.85667
45 1 -44.7115 12.4625 -7.90113
199 1 35.3727 -35.9164 -7.92591
198 1 34.7494 -35.2737 -7.49137
197 1 35.6779 -34.9154 -7.30791
194 1 37.0251 -32.7911 -7.39629
193 1 36.8861 -31.8375 -7.34282
2 1 -40.4609 11.4453 -6.63362
3 1 -39.487 11.2259 -6.67876
50 1 -42.1699 11.6031 -7.27483
48 1 -43.2413 11.6399 -6.31749
49 1 -42.8113 12.2978 -6.97714
196 1 35.7481 -33.924 -7.12294
195 1 36.1697 -33.0492 -7.14644
1 1 -41.207 11.3863 -7.2313
ITEM: TIMESTEP
8700000
ITEM: NUMBER OF ATOMS
100
ITEM: BOX BOUNDS ff ff ff
-5.0000000000000000e+01 5.0000000000000000e+01
-5.0000000000000000e+01 5.0000000000000000e+01
-5.0000000000000000e+01 5.0000000000000000e+01
ITEM: ATOMS id type x y z
43 1 -36.1246 23.2314 -9.39178
38 1 -38.0005 21.2519 -7.54781
42 1 -36.6152 22.5988 -9.81373
45 1 -36.8869 24.8821 -9.19426
44 1 -36.8669 23.927 -9.07617
41 1 -36.1997 21.7985 -9.42076
46 1 -36.1226 24.7067 -8.55843
29 1 -37.4984 17.736 -6.14367
32 1 -36.2319 18.2272 -7.08545
13 1 -31.5784 16.6222 -4.38924
14 1 -32.0541 15.8281 -4.62549
33 1 -35.5743 18.9946 -7.14063
11 1 -31.779 18.3334 -3.97413
12 1 -31.3681 17.5652 -4.37978
36 1 -36.8298 20.4028 -6.15788
37 1 -37.3284 20.7009 -6.98991
40 1 -36.6119 21.4902 -8.62319
39 1 -37.0004 21.3515 -7.67378
50 1 -34.9698 23.0673 -6.48692
49 1 -34.9383 23.1694 -7.45422
47 1 -35.4212 24.5715 -7.91432
48 1 -35.0461 23.7353 -8.21016
177 1 33.425 -30.1091 -4.72515
28 1 -38.1521 17.8082 -5.437
27 1 -37.7555 16.9557 -5.17437
26 1 -37.194 16.2365 -5.24918
25 1 -36.3522 16.1955 -4.84087
23 1 -35.3658 17.3833 -4.72454
24 1 -36.261 17.1453 -4.92838
30 1 -36.6548 18.0971 -5.90934
31 1 -36.38 17.4842 -6.54495
16 1 -32.831 16.1 -6.10286
15 1 -32.7932 16.2067 -5.14996
34 1 -35.7174 19.5107 -6.32977
10 1 -31.6205 19.2634 -3.70718
9 1 -32.0543 20.1556 -3.65093
35 1 -35.9119 20.4689 -6.30868
1 1 -33.9747 22.9777 -6.59175
2 1 -34.2519 22.9605 -5.59877
187 1 33.147 -32.6958 -1.99151
188 1 32.8489 -33.34 -1.28377
185 1 33.9474 -32.5874 -2.65322
189 1 32.1622 -33.5217 -1.94241
183 1 33.7233 -31.2115 -3.70116
182 1 34.5697 -30.6617 -3.46258
181 1 34.5928 -30.1121 -4.33566
180 1 34.307 -30.8472 -4.86907
179 1 33.9699 -31.4377 -5.61555
178 1 33.3869 -30.8214 -5.33101
175 1 31.7342 -29.7537 -4.51141
174 1 31.3855 -29.0027 -4.15889
176 1 32.7046 -29.4525 -4.71966
22 1 -34.9128 17.2258 -3.87491
21 1 -34.2255 16.7454 -3.39657
20 1 -33.9084 16.634 -4.35058
19 1 -33.8546 16.3251 -5.25599
18 1 -33.762 15.3626 -5.02264
17 1 -33.1433 15.221 -5.79121
8 1 -32.0192 20.2761 -4.6059
7 1 -32.5713 21.0281 -4.95755
5 1 -33.132 22.0641 -6.08742
6 1 -32.3524 21.7584 -5.65474
4 1 -33.6015 21.4105 -5.46421
3 1 -33.7609 22.317 -5.11106
191 1 30.7093 -32.6787 -1.11254
190 1 31.3688 -33.0984 -1.64143
186 1 33.0808 -32.9199 -2.95045
184 1 33.6355 -31.7419 -2.89062
172 1 31.7854 -28.4194 -3.24281
173 1 31.0021 -28.8901 -3.29628
171 1 32.0251 -27.6825 -2.61202
192 1 30.2239 -32.7807 -0.276483
194 1 30.8187 -31.2173 -0.714761
193 1 30.5132 -31.8993 -0.0757854
198 1 32.3673 -32.2692 1.33949
170 1 32.2665 -28.3902 -2.01103
168 1 33.6016 -27.8962 -1.46272
169 1 33.1893 -28.6505 -1.85919
195 1 31.5581 -30.692 -0.366444
196 1 31.4167 -31.4804 0.193116
197 1 32.2582 -31.5562 0.622867
199 1 31.7307 -32.6736 1.94319
200 1 32.4273 -32.5778 2.57272
151 1 33.2233 -32.0871 2.5538
166 1 33.7165 -28.4554 -0.480489
163 1 32.7186 -28.2134 1.28942
164 1 32.6282 -28.4009 0.351552
167 1 34.1216 -28.7827 -1.28135
165 1 32.8756 -27.9318 -0.415801
155 1 34.6818 -30.1553 2.76299
153 1 33.6932 -31.0858 1.94528
154 1 33.7956 -30.2002 2.32216
156 1 35.616 -29.8186 2.84482
157 1 35.3651 -29.0524 3.38422
152 1 33.6185 -31.9623 1.65949
158 1 34.7203 -28.3892 3.27303
159 1 34.0412 -28.6523 2.66291
162 1 33.0256 -28.4976 2.17481
160 1 34.0264 -27.6452 2.54678
161 1 33.8171 -28.1027 1.79153
ITEM: TIMESTEP
8800000
ITEM: NUMBER OF ATOMS
100
ITEM: BOX BOUNDS ff ff ff
-5.0000000000000000e+01 5.0000000000000000e+01
-5.0000000000000000e+01 5.0000000000000000e+01
-5.0000000000000000e+01 5.0000000000000000e+01
ITEM: ATOMS id type x y z
43 1 -31.5033 19.1153 -11.7631
42 1 -31.346 19.923 -12.3199
41 1 -31.4141 20.8632 -12.4561
40 1 -31.0238 20.8752 -11.5732
39 1 -30.3767 21.2118 -12.2012
37 1 -29.2264 19.8197 -11.6246
38 1 -29.8284 20.5879 -11.8083
48 1 -32.4582 21.8361 -10.7686
47 1 -32.837 21.1372 -10.1425
49 1 -31.7943 21.7031 -10.1364
44 1 -32.2514 19.5607 -11.3408
45 1 -32.6167 20.1778 -10.6634
34 1 -28.2147 21.3087 -10.5238
36 1 -29.3102 20.1566 -10.6919
35 1 -28.6378 20.6503 -11.1271
50 1 -30.855 21.6102 -10.1929
46 1 -32.8389 20.2431 -9.75422
1 1 -30.5762 22.4009 -9.83629
3 1 -29.2437 22.6502 -8.59726
2 1 -30.0104 22.348 -9.07676
33 1 -28.4351 22.2375 -10.478
32 1 -27.956 22.9978 -10.0429
31 1 -27.2515 23.3236 -9.48446
17 1 -28.6355 18.9687 -7.73702
18 1 -29.199 19.3473 -8.41903
20 1 -28.4906 19.5988 -9.81869
19 1 -28.568 19.9011 -8.84749
21 1 -27.6309 19.2325 -9.79615
4 1 -28.6955 22.2851 -7.88451
5 1 -28.9871 22.4289 -6.98615
30 1 -26.6056 23.0853 -8.83196
28 1 -26.3065 21.4222 -7.93732
29 1 -26.3542 22.2715 -8.3673
15 1 -30.2538 18.0235 -7.77367
16 1 -29.4803 18.5391 -7.58392
22 1 -27.5203 18.3179 -9.53841
23 1 -27.1743 17.9683 -8.714
7 1 -29.2708 21.372 -7.60082
8 1 -29.2498 20.8899 -6.79192
24 1 -27.8137 18.3869 -8.0367
25 1 -27.3734 19.2379 -7.8617
6 1 -28.5177 21.6333 -7.12982
27 1 -26.7578 20.7495 -8.37753
26 1 -26.6546 19.8488 -8.02862
14 1 -30.5453 18.9397 -7.56269
12 1 -30.6883 19.9869 -6.10542
13 1 -30.6209 19.8488 -7.09658
11 1 -31.3392 20.5546 -5.60505
10 1 -30.746 21.1771 -6.11682
9 1 -30.0798 21.4114 -6.78977
197 1 42.6882 -24.8592 3.47509
195 1 42.3575 -25.3774 1.71089
196 1 42.4975 -25.4299 2.74948
198 1 43.5001 -24.4915 3.8177
199 1 43.7155 -25.487 4.04995
200 1 43.5137 -26.1587 3.38005
151 1 43.5471 -26.9926 2.91823
152 1 44.0501 -27.745 2.59082
187 1 39.7958 -27.414 2.90153
188 1 40.329 -26.7847 2.43755
189 1 40.3373 -26.128 1.73985
190 1 40.3893 -26.405 0.750487
192 1 41.3725 -25.319 -0.0390039
191 1 40.5465 -25.5332 0.418586
194 1 42.6585 -24.7919 1.01491
193 1 41.7999 -24.6851 0.619763
153 1 44.7607 -27.0442 2.56222
155 1 46.567 -27.3068 2.46829
154 1 45.6476 -27.3565 2.45546
175 1 42.2857 -28.6826 4.52425
174 1 42.8383 -29.1675 3.83502
176 1 42.3828 -29.4425 5.17295
173 1 42.7241 -30.1344 3.79396
172 1 42.5662 -31.115 3.61265
185 1 40.0998 -28.3168 3.36058
186 1 40.7107 -27.5277 3.32872
184 1 39.449 -29.0668 3.39495
183 1 40.1811 -29.4391 2.95035
170 1 43.3809 -30.7787 4.4899
171 1 42.9233 -31.6177 4.37709
169 1 44.0493 -31.2991 4.82866
156 1 47.2859 -27.6072 3.08096
157 1 47.9894 -28.1595 3.01349
158 1 47.73 -29.0589 2.89142
181 1 41.2546 -30.9613 3.35944
180 1 41.2171 -31.1398 4.34121
179 1 41.3927 -30.7247 5.15766
177 1 41.9931 -30.0456 5.79252
178 1 41.2162 -30.5245 6.10724
182 1 40.6347 -30.2477 3.34461
168 1 45.0073 -31.1551 4.80276
166 1 46.371 -30.9174 5.24475
163 1 47.0855 -29.3275 6.0576
160 1 48.6334 -29.1225 4.47475
162 1 47.9457 -29.0958 5.60611
167 1 45.5641 -31.2974 5.60325
161 1 47.9686 -29.7405 4.85785
159 1 47.9279 -29.0738 3.82692
165 1 47.338 -31.0637 5.29602
164 1 47.1201 -30.3092 5.85457
ITEM: TIMESTEP
8900000
ITEM: NUMBER OF ATOMS
100
ITEM: BOX BOUNDS ff ff ff
-5.0000000000000000e+01 5.0000000000000000e+01
-5.0000000000000000e+01 5.0000000000000000e+01
-5.0000000000000000e+01 5.0000000000000000e+01
ITEM: ATOMS id type x y z
29 1 -30.6211 21.0477 -4.32477
26 1 -31.8608 20.0469 -3.30175
27 1 -32.0179 19.9156 -4.28405
28 1 -31.3455 20.5429 -4.58956
32 1 -29.5893 21.6849 -5.46706
31 1 -30.5153 21.8271 -5.35479
36 1 -27.9987 22.4385 -4.99784
30 1 -31.004 21.958 -4.55021
33 1 -29.2139 21.7203 -4.6063
34 1 -28.5044 21.1033 -4.8387
165 1 38.866 -26.6183 -3.21079
164 1 39.0599 -26.9318 -4.15472
167 1 38.765 -25.1211 -3.67257
169 1 37.8975 -24.4516 -2.87885
168 1 38.8728 -24.4298 -2.95267
170 1 37.8741 -23.627 -2.30901
175 1 40.4776 -22.7098 -3.46367
25 1 -31.2299 19.8888 -2.59369
24 1 -31.5602 19.8062 -1.68306
23 1 -32.318 20.0349 -1.09965
22 1 -32.5176 20.3072 -1.99791
35 1 -28.5507 21.7445 -5.52053
17 1 -29.8156 21.8122 -2.86415
15 1 -28.6704 22.1667 -1.99319
13 1 -28.5914 21.1374 -1.37277
37 1 -28.4991 23.2045 -4.58261
18 1 -30.5706 22.438 -2.81033
38 1 -28.8085 23.0508 -3.65935
160 1 36.1222 -25.951 -5.03594
158 1 35.8156 -26.4354 -3.36516
161 1 36.4743 -26.8318 -5.34137
162 1 37.3466 -26.6306 -5.05883
163 1 38.2501 -26.8452 -4.70974
159 1 36.2204 -26.3975 -4.20588
166 1 39.3678 -25.9172 -3.63722
171 1 37.3926 -22.8754 -2.60988
172 1 38.1991 -22.4835 -2.30769
180 1 41.6322 -24.6558 -0.849066
181 1 40.9745 -24.8869 -0.235807
173 1 38.6081 -23.058 -2.92657
174 1 39.6059 -22.9582 -3.17486
179 1 42.3632 -24.673 -1.60141
176 1 40.7769 -23.5555 -3.08496
178 1 42.0168 -23.699 -2.00289
14 1 -29.3967 21.4754 -1.8631
12 1 -29.3254 21.0629 -0.776892
20 1 -31.7642 21.4655 -2.80078
21 1 -31.7135 20.892 -2.06702
16 1 -29.3506 22.5844 -2.59759
11 1 -29.4431 20.4612 -0.120054
19 1 -31.1047 21.8215 -3.31424
39 1 -27.9215 23.2365 -3.62894
40 1 -28.2281 23.3824 -2.75761
43 1 -29.0725 23.9641 -0.953838
42 1 -28.6974 23.107 -1.27347
41 1 -28.5177 23.7702 -1.92287
45 1 -29.5715 25.6348 -0.209945
46 1 -29.2086 26.5037 -0.0736352
47 1 -28.2672 26.2802 -0.137669
48 1 -28.4339 25.3966 -0.505032
190 1 38.1598 -24.2734 2.0064
153 1 36.3997 -26.0956 -0.560551
155 1 36.8517 -25.7238 -1.84443
154 1 35.9927 -25.8873 -1.39804
157 1 35.2823 -25.9398 -2.7658
156 1 36.2656 -25.8784 -2.60698
189 1 38.9213 -24.2698 1.38105
188 1 38.9827 -23.5213 0.75992
182 1 40.8114 -23.9967 0.0802069
183 1 40.6946 -23.199 0.574414
184 1 40.8842 -22.4474 -0.0892503
177 1 41.5231 -23.1817 -2.5693
10 1 -30.4099 20.5238 -0.295009
8 1 -30.5267 22.1839 0.0074552
9 1 -30.7259 21.2556 0.231708
7 1 -29.9755 21.8471 0.68522
2 1 -28.5736 25.0061 2.26162
44 1 -29.3815 24.8456 -0.802152
50 1 -27.6034 24.6932 1.13135
1 1 -27.6294 24.9453 2.0324
49 1 -27.8692 25.0584 0.242851
151 1 35.3211 -25.8339 0.975979
198 1 34.3566 -24.1025 -0.183538
194 1 37.1231 -22.9221 -0.289461
193 1 37.1758 -23.185 0.686912
192 1 36.7904 -23.2828 1.55746
191 1 37.4579 -23.684 2.1649
152 1 35.8846 -25.9126 0.252312
197 1 35.2535 -24.3884 -0.197758
187 1 39.4869 -22.7101 0.817574
186 1 39.4157 -22.5304 -0.157999
185 1 40.075 -21.9377 0.220546
6 1 -30.0952 22.6425 1.26981
4 1 -29.2002 23.6015 1.847
3 1 -29.3518 24.5661 1.79905
5 1 -29.5085 22.696 1.99099
200 1 34.98 -24.9209 1.11194
199 1 34.4993 -24.9564 0.287567
195 1 36.2947 -23.0218 0.0482343
196 1 35.7757 -23.7996 0.359
ITEM: TIMESTEP
9000000
ITEM: NUMBER OF ATOMS
100
ITEM: BOX BOUNDS ff ff ff
-5.0000000000000000e+01 5.0000000000000000e+01
-5.0000000000000000e+01 5.0000000000000000e+01
-5.0000000000000000e+01 5.0000000000000000e+01
ITEM: ATOMS id type x y z
183 1 42.126 -23.5909 1.09721
182 1 42.8446 -23.7268 0.452619
184 1 41.64 -24.3935 0.867633
42 1 -29.2688 17.2214 2.36856
43 1 -29.8613 17.3414 1.67985
41 1 -29.0742 17.3786 3.26385
40 1 -28.8604 18.3094 3.37112
9 1 -32.6166 19.528 -0.656033
39 1 -27.9495 18.0895 3.57337
38 1 -27.4993 18.6849 3.00666
37 1 -26.9606 19.107 3.81923
10 1 -32.2542 20.2639 -0.110621
11 1 -32.8618 20.839 0.388405
12 1 -32.3553 20.8549 1.25933
178 1 43.347 -24.7545 3.09981
180 1 43.1311 -24.5272 1.82549
179 1 43.8649 -25.0123 2.26081
181 1 43.3664 -24.3733 0.967251
187 1 40.1377 -23.2968 1.05917
185 1 40.6537 -24.4411 1.17697
186 1 40.3331 -23.9572 0.414026
3 1 -34.4713 17.9368 2.72764
2 1 -34.5673 17.508 3.56084
46 1 -31.6835 16.9276 0.987413
45 1 -30.7979 16.8363 0.663717
44 1 -30.0726 17.4331 0.734133
35 1 -28.588 19.6297 3.6374
36 1 -27.7464 19.5199 4.1827
6 1 -32.727 18.4808 1.58577
7 1 -32.4925 18.3473 0.648997
4 1 -34.2089 18.3017 1.93596
5 1 -33.5462 18.1709 1.22078
16 1 -32.2214 20.4821 3.13718
8 1 -32.2444 19.0618 0.071548
33 1 -29.5933 20.3173 4.59248
13 1 -31.5987 21.1498 1.82628
15 1 -32.45 20.1646 2.20146
176 1 43.965 -25.5218 4.16725
177 1 43.6869 -25.6338 3.30441
190 1 38.8024 -23.4542 2.43731
188 1 40.2394 -23.0405 2.08501
189 1 39.563 -23.0793 2.71525
1 1 -34.2487 18.3963 3.58654
50 1 -33.3056 18.3118 3.37222
47 1 -31.9349 16.7783 1.97973
34 1 -29.218 20.3701 3.70274
17 1 -33.109 20.1772 2.86974
32 1 -29.6991 21.037 5.23306
14 1 -31.5029 20.2264 2.0621
19 1 -33.0052 20.456 4.72395
18 1 -33.4234 20.2061 3.82157
20 1 -32.6657 21.3501 4.54247
31 1 -29.0917 21.4961 5.87302
162 1 38.258 -28.1594 8.45178
163 1 38.4594 -27.5705 9.16498
157 1 38.1883 -28.5802 6.17837
164 1 39.2213 -27.0963 9.02828
165 1 39.8101 -27.8514 9.25985
174 1 42.3518 -26.502 4.01475
175 1 43.0758 -25.9288 4.33221
195 1 38.2569 -24.6564 6.23044
194 1 38.0576 -23.8153 5.76819
193 1 38.238 -23.1956 5.09088
191 1 38.5796 -23.2528 3.40549
192 1 38.043 -22.973 4.15704
49 1 -32.8836 17.5257 3.08315
48 1 -32.8237 17.0137 2.31942
21 1 -32.5059 21.3397 5.49089
24 1 -31.459 22.6423 7.36396
22 1 -32.1059 22.1169 5.81123
30 1 -28.3652 22.2142 5.91149
29 1 -28.4599 23.0314 5.39797
27 1 -29.5949 23.2084 6.95935
159 1 37.6227 -28.0575 6.99742
160 1 37.6038 -28.9269 7.52953
168 1 41.2265 -27.9422 7.94851
171 1 41.172 -27.509 5.73438
158 1 38.3261 -27.6368 6.39744
161 1 38.503 -29.0208 8.05998
156 1 39.0385 -28.8443 6.42591
166 1 40.5772 -28.4437 9.03497
167 1 40.5323 -28.6007 8.08945
169 1 41.7529 -27.3066 7.56529
170 1 41.4863 -27.5177 6.64926
173 1 41.8273 -27.2883 4.07127
172 1 41.1622 -27.3562 4.78925
152 1 39.2642 -26.7721 5.97472
155 1 39.538 -28.4724 5.65844
154 1 39.4612 -27.8935 6.42152
151 1 39.383 -25.8259 6.21335
200 1 39.0857 -25.1004 6.69286
199 1 38.4757 -25.4698 7.37133
196 1 37.4027 -24.4563 6.61509
197 1 36.6948 -24.8538 7.19397
198 1 37.5226 -25.378 7.1101
23 1 -31.7691 22.6788 6.50811
28 1 -29.1301 22.9969 6.14188
26 1 -29.9631 23.0221 7.86906
25 1 -30.8487 23.2892 7.77994
153 1 39.5036 -27.1284 6.91579
ITEM: TIMESTEP
9100000
ITEM: NUMBER OF ATOMS
100
ITEM: BOX BOUNDS ff ff ff
-5.0000000000000000e+01 5.0000000000000000e+01
-5.0000000000000000e+01 5.0000000000000000e+01
-5.0000000000000000e+01 5.0000000000000000e+01
ITEM: ATOMS id type x y z
29 1 -29.5541 13.0747 -7.12804
28 1 -29.1446 12.2385 -7.249
25 1 -27.2973 11.2116 -6.57732
26 1 -27.9693 10.6768 -6.97036
27 1 -28.5781 11.4592 -7.08772
30 1 -30.4571 12.9249 -7.12313
31 1 -30.4284 13.6186 -6.36879
38 1 -31.6484 17.143 -6.16445
21 1 -26.3949 9.66045 -5.54357
24 1 -26.5283 10.7174 -6.89849
22 1 -27.1042 9.40018 -6.16977
23 1 -27.0456 9.9137 -7.03371
20 1 -26.7798 10.4138 -5.1443
19 1 -27.0092 11.2543 -4.8769
18 1 -27.7986 10.7103 -4.98894
17 1 -28.5881 10.3948 -4.57777
16 1 -29.6408 10.1366 -4.65752
32 1 -29.4658 13.8001 -6.10548
33 1 -29.7857 14.5987 -6.51255
35 1 -30.5133 16.0184 -6.15719
36 1 -30.7972 16.6852 -6.79269
34 1 -30.2416 15.2032 -5.7736
37 1 -30.7729 17.4615 -6.30075
40 1 -30.9406 16.8484 -5.22126
39 1 -31.8147 16.539 -5.32349
187 1 43.5631 -21.9379 -3.20323
186 1 44.125 -22.0766 -4.01295
15 1 -29.8059 9.24302 -4.25549
13 1 -29.2508 10.6046 -3.55095
14 1 -29.2121 9.66697 -3.57099
12 1 -29.4563 11.3142 -4.22412
11 1 -28.5688 11.5532 -4.42238
10 1 -28.0736 12.1145 -3.85795
5 1 -28.421 14.5968 -3.80841
6 1 -27.9128 13.7571 -3.83649
9 1 -27.3631 12.8472 -3.80986
8 1 -27.3345 12.6365 -2.83336
3 1 -29.2116 15.5147 -4.27771
2 1 -30.131 15.6202 -4.53863
4 1 -28.682 15.4708 -3.48978
7 1 -27.3775 13.5472 -3.04121
41 1 -31.1175 17.2133 -4.35868
43 1 -30.2999 17.7359 -3.76019
42 1 -30.5414 17.9494 -4.65611
191 1 42.549 -20.2693 -1.45677
189 1 43.0108 -21.1115 -2.49432
190 1 42.9428 -20.1847 -2.33623
182 1 46.9272 -23.7127 -3.72202
188 1 42.9581 -21.2123 -3.48473
184 1 45.3614 -23.3509 -4.13763
185 1 44.596 -22.8976 -3.78471
181 1 46.8906 -23.753 -2.79944
180 1 46.6503 -23.0342 -2.23653
178 1 46.5952 -21.8179 -2.12502
174 1 48.1634 -21.4767 0.0659579
179 1 45.8578 -22.4862 -2.03712
176 1 48.1323 -21.3887 -1.15775
175 1 47.8768 -20.7069 -0.475254
49 1 -31.7422 14.9255 -3.17775
1 1 -30.7604 15.1117 -4.06742
50 1 -31.0323 14.3438 -3.57185
47 1 -31.7864 15.8976 -2.53706
46 1 -30.7772 16.0691 -2.53868
45 1 -30.2784 16.4459 -3.26003
44 1 -29.7265 17.1997 -3.15612
192 1 42.0819 -21.1195 -1.17628
193 1 41.6952 -20.3425 -0.846128
194 1 42.3318 -20.1279 -0.148671
195 1 41.6302 -20.8922 0.0684161
198 1 40.9297 -22.3435 1.16801
172 1 47.3891 -22.2308 0.119641
199 1 40.0715 -21.9609 1.01638
183 1 46.3156 -23.4458 -4.39333
171 1 46.6916 -21.4881 0.110969
170 1 46.7333 -21.352 1.01444
173 1 48.294 -22.3551 0.384015
177 1 47.345 -21.3378 -1.77068
48 1 -32.5177 15.3244 -2.71808
196 1 42.2393 -21.5417 0.393408
197 1 41.8006 -21.8507 1.22224
200 1 40.0546 -21.2684 0.31319
168 1 45.7835 -20.8632 1.61902
169 1 45.835 -21.402 0.795249
151 1 40.2909 -20.4397 -0.101858
152 1 40.4112 -19.8889 0.708529
165 1 45.9698 -18.9574 0.54437
167 1 46.2575 -20.111 1.23665
166 1 46.7778 -19.5258 0.655545
153 1 41.2579 -19.461 0.766174
164 1 45.9649 -18.5864 1.41305
154 1 41.3642 -19.105 1.6553
155 1 42.2445 -19.601 1.68355
156 1 43.1665 -19.4274 1.41481
161 1 44.0604 -19.1841 3.15405
163 1 45.27 -18.6145 2.09154
162 1 44.881 -18.7512 2.95446
160 1 43.4964 -18.3652 3.19146
157 1 42.8735 -18.552 1.32834
158 1 43.0503 -17.9489 2.04675
159 1 42.6017 -18.2595 2.80834
ITEM: TIMESTEP
9200000
ITEM: NUMBER OF ATOMS
100
ITEM: BOX BOUNDS ff ff ff
-5.0000000000000000e+01 5.0000000000000000e+01
-5.0000000000000000e+01 5.0000000000000000e+01
-5.0000000000000000e+01 5.0000000000000000e+01
ITEM: ATOMS id type x y z
9 1 -27.2888 6.64196 -3.79668
8 1 -28.0856 6.73338 -4.32302
6 1 -28.0237 8.38865 -5.11443
7 1 -28.2829 7.66903 -4.50164
13 1 -27.6758 7.00533 -2.32117
11 1 -26.515 7.39936 -2.93264
12 1 -26.7989 7.22766 -2.06752
10 1 -26.4367 6.50668 -3.26598
3 1 -29.186 8.88699 -3.5214
4 1 -28.6647 8.1342 -3.6294
5 1 -28.5371 8.76901 -4.38839
17 1 -29.0433 6.47584 -0.0772278
16 1 -29.1906 6.04904 -0.929376
15 1 -28.8307 6.93975 -1.24305
14 1 -28.3221 6.39889 -1.84298
2 1 -29.303 8.70309 -2.56446
48 1 -29.49 11.3706 -2.25703
1 1 -29.4036 9.56239 -2.27793
47 1 -30.3372 11.7732 -2.01495
50 1 -30.1717 9.72349 -2.82688
43 1 -29.0642 12.1878 -0.0394615
44 1 -29.2542 12.1588 -0.944719
19 1 -30.8424 6.28525 -0.502131
21 1 -32.307 6.42179 -0.742235
20 1 -31.6463 5.7486 -0.555878
18 1 -30.0037 6.22951 0.067502
29 1 -33.5239 9.95354 -0.653537
28 1 -32.9416 9.86732 0.113176
24 1 -33.8773 7.65037 -0.0636555
25 1 -33.2977 8.2462 -0.470402
30 1 -32.6777 10.3799 -0.937724
23 1 -33.2325 7.22944 0.511364
22 1 -32.5429 7.23783 -0.238677
31 1 -32.1313 11.1858 -0.835083
32 1 -32.726 11.9656 -0.6511
46 1 -30.771 11.13 -1.44606
49 1 -29.687 10.5056 -2.67318
45 1 -30.0195 11.5517 -1.04416
35 1 -32.6976 12.6309 1.13639
42 1 -28.8529 13.1075 -0.316973
41 1 -28.7569 14.0709 -0.373039
27 1 -32.2191 9.39362 -0.342714
26 1 -32.76 8.75712 0.103106
33 1 -33.6308 11.8999 -0.333781
34 1 -32.8955 12.1906 0.329009
36 1 -32.3912 13.2054 1.84593
40 1 -29.3708 13.9478 0.508865
39 1 -30.2751 13.6763 0.623215
38 1 -30.9533 13.5936 1.352
37 1 -31.8915 13.9967 1.63873
182 1 32.8335 -13.6898 6.36934
180 1 34.0023 -12.6647 7.19299
181 1 33.2601 -13.2461 7.07484
179 1 33.2927 -12.3465 7.75391
175 1 32.0582 -9.47972 6.19609
174 1 32.0177 -8.57197 6.69641
173 1 32.9536 -8.55017 6.90329
172 1 32.9649 -8.04097 7.73042
164 1 36.928 -5.27452 5.90831
171 1 33.1049 -7.15238 7.45988
170 1 33.7395 -6.5075 7.18115
169 1 34.4464 -6.10315 6.70212
168 1 34.5086 -6.85442 6.10449
188 1 31.4269 -15.8334 8.60183
190 1 32.5935 -15.8945 8.64111
184 1 31.7117 -14.1555 7.0306
189 1 32.0387 -15.7397 9.39975
186 1 31.605 -15.0129 7.76322
185 1 32.2418 -14.9713 7.05547
183 1 31.9173 -14.005 6.11611
177 1 32.7788 -10.7627 7.01804
176 1 32.8129 -10.0146 6.44554
178 1 32.9472 -11.6393 7.34742
163 1 37.3232 -5.57253 5.03965
162 1 37.5433 -6.41514 4.74479
167 1 35.4269 -6.61208 5.94182
166 1 36.0158 -6.52501 5.19809
165 1 36.1608 -5.68985 5.64878
161 1 36.9852 -6.76119 5.43586
160 1 37.3535 -6.6384 6.2852
187 1 31.8107 -15.9634 7.72274
191 1 33.4867 -15.5754 8.43939
198 1 36.5114 -12.5998 7.6839
197 1 36.6911 -13.5168 7.90549
199 1 36.7732 -12.9007 6.80349
153 1 37.1884 -11.3679 7.01358
152 1 38.1002 -11.782 6.85884
154 1 37.3016 -10.5757 7.47846
157 1 37.787 -8.32423 7.91577
158 1 38.062 -7.47233 7.74513
159 1 38.0101 -6.80691 6.97699
192 1 34.1988 -15.0323 8.25539
193 1 34.3185 -14.2097 8.68329
194 1 34.6383 -13.3131 8.81645
196 1 35.8418 -13.6556 7.4201
195 1 35.2126 -13.5011 8.08409
200 1 37.7548 -12.7741 6.49699
151 1 37.4953 -12.3785 7.39966
155 1 37.2256 -9.61621 7.50349
156 1 37.4094 -9.09952 8.30175
ITEM: TIMESTEP
9300000
ITEM: NUMBER OF ATOMS
100
ITEM: BOX BOUNDS ff ff ff
-5.0000000000000000e+01 5.0000000000000000e+01
-5.0000000000000000e+01 5.0000000000000000e+01
-5.0000000000000000e+01 5.0000000000000000e+01
ITEM: ATOMS id type x y z
18 1 -34.8716 14.4935 6.02049
16 1 -35.4139 14.2977 4.81431
15 1 -35.4754 14.4335 3.79612
13 1 -36.6824 14.8669 2.9469
14 1 -36.3031 15.0415 3.82439
19 1 -33.9786 13.998 6.00417
20 1 -33.1067 13.8079 6.10985
17 1 -34.5502 14.6078 5.11702
12 1 -37.4066 15.3504 2.49448
11 1 -37.2385 16.3179 2.45874
1 1 -33.4074 18.6247 4.19286
2 1 -33.9632 18.829 3.46799
47 1 -32.9332 20.1192 5.40782
48 1 -31.9652 19.8526 5.2347
49 1 -32.0534 18.9201 5.33436
50 1 -32.8689 19.1033 4.85571
21 1 -32.8188 13.0973 6.61885
22 1 -33.079 12.4931 7.33069
10 1 -37.5826 17.1953 2.34635
8 1 -36.2681 17.4353 3.47559
9 1 -36.6488 17.3012 2.60462
7 1 -35.4958 17.1309 3.89235
4 1 -34.8385 18.4094 2.81724
3 1 -34.3127 17.9626 3.43257
46 1 -33.2721 20.6491 6.0906
45 1 -32.6959 20.7411 6.87286
44 1 -33.0682 19.864 7.06924
24 1 -34.369 13.2527 6.94364
23 1 -33.9812 12.367 7.12718
25 1 -33.8591 13.6734 7.57115
26 1 -33.7191 14.6597 7.44129
27 1 -32.8913 14.7484 7.91211
28 1 -33.2447 15.5561 8.23736
6 1 -35.9677 17.8876 4.34542
5 1 -35.3631 18.2425 3.62098
42 1 -34.0828 20.2 8.50495
41 1 -33.1746 19.9754 8.84561
43 1 -33.4539 19.6547 7.89501
29 1 -34.0054 16.1866 8.09417
33 1 -33.1955 17.4191 8.93741
31 1 -32.3612 16.7532 8.46466
30 1 -33.2463 16.8267 8.08228
34 1 -32.7273 18.2021 9.24398
35 1 -33.6441 18.5025 9.38564
32 1 -32.7779 16.6569 9.36365
36 1 -34.4225 19.0586 9.47832
37 1 -34.5525 18.4597 8.71996
38 1 -33.7729 18.6018 8.16032
39 1 -32.8362 18.7065 7.88679
40 1 -32.5594 19.4882 8.28162
153 1 43.5517 -21.0053 18.9689
155 1 42.9576 -19.3624 18.6058
154 1 43.5471 -20.0763 18.6515
194 1 40.5807 -22.7825 17.2608
195 1 41.3098 -23.2543 17.6701
193 1 40.4496 -21.8813 16.9405
191 1 40.1835 -21.3327 17.8731
192 1 40.8466 -21.055 17.2457
197 1 42.0248 -22.3377 16.8886
199 1 42.2364 -21.3952 17.295
198 1 42.7272 -22.2417 17.5343
184 1 39.0122 -19.1195 18.7656
185 1 39.4428 -18.3661 19.1212
200 1 42.8854 -20.6869 17.0871
152 1 44.2421 -20.9367 18.3792
151 1 43.5852 -20.647 17.7757
156 1 42.1728 -18.7228 18.6092
157 1 41.7177 -17.871 18.5294
158 1 41.6131 -18.14 19.4424
189 1 40.1132 -20.2246 18.6545
190 1 40.7899 -20.939 18.4689
196 1 41.401 -23.051 16.718
181 1 38.3947 -18.2124 19.3299
180 1 38.1923 -18.6781 20.1595
186 1 40.2122 -18.4627 18.5447
187 1 40.7158 -19.1908 18.3193
183 1 38.0194 -19.0985 18.8195
182 1 37.5547 -18.2639 18.8993
163 1 42.3868 -14.9136 20.418
159 1 42.4135 -17.8102 19.844
165 1 42.5318 -14.6922 22.3009
164 1 42.4231 -15.014 21.3906
160 1 42.8259 -17.0173 20.1082
176 1 39.0511 -19.1351 21.3616
179 1 38.091 -19.6573 20.0859
178 1 38.3784 -20.5048 20.4032
188 1 41.1064 -19.9604 18.7428
175 1 39.3424 -18.5573 20.6306
174 1 38.9041 -17.7596 20.6621
177 1 38.4262 -19.7939 21.0491
169 1 40.7873 -15.4846 21.3876
168 1 40.9873 -14.9921 22.2222
173 1 38.8045 -17.0689 21.3504
162 1 41.6999 -15.4792 20.1353
161 1 42.1384 -16.3185 20.1369
167 1 41.196 -14.3114 21.5744
166 1 41.9635 -13.9941 22.0969
170 1 39.8064 -15.501 21.162
171 1 38.7759 -15.6169 21.2369
172 1 38.8089 -16.2966 21.8755
ITEM: TIMESTEP
9400000
ITEM: NUMBER OF ATOMS
100
ITEM: BOX BOUNDS ff ff ff
-5.0000000000000000e+01 5.0000000000000000e+01
-5.0000000000000000e+01 5.0000000000000000e+01
-5.0000000000000000e+01 5.0000000000000000e+01
ITEM: ATOMS id type x y z
169 1 36.0645 -21.2419 5.77922
168 1 36.6599 -21.9357 5.84883
167 1 35.92 -22.5637 6.21433
166 1 36.6355 -23.0403 5.84954
172 1 37.7875 -21.5904 6.38539
154 1 40.8921 -23.4514 8.7689
153 1 41.1122 -22.9909 7.92791
170 1 36.5452 -20.7888 6.53566
171 1 36.8959 -21.6563 6.84555
152 1 41.731 -22.7752 7.23008
199 1 39.7434 -21.1794 7.4306
151 1 41.3919 -21.8988 7.40493
200 1 40.5502 -21.5021 7.0653
196 1 40.071 -19.5154 8.13342
198 1 40.005 -21.1317 8.4023
197 1 39.4894 -20.287 8.21353
195 1 39.5947 -18.6713 8.15376
46 1 -28.4686 18.8127 9.71926
165 1 37.6166 -22.8614 5.92244
164 1 37.8345 -23.3766 6.72858
163 1 38.6026 -23.9614 6.76448
160 1 38.7431 -25.0917 8.16123
158 1 37.9215 -24.15 8.67472
157 1 38.3117 -23.7797 9.47454
156 1 39.1398 -24.1263 9.04937
174 1 38.1999 -22.5424 7.28989
176 1 39.0446 -21.6056 8.62344
175 1 38.8721 -22.2574 7.92867
173 1 38.3714 -22.3725 6.3342
155 1 40.0721 -23.9025 9.12742
185 1 36.6768 -18.9957 11.8037
184 1 36.9137 -19.5636 11.058
187 1 35.7273 -17.7379 11.0792
186 1 36.0319 -18.3021 11.7321
188 1 36.4501 -17.1693 10.7972
189 1 37.1412 -17.1193 10.0769
192 1 38.6453 -18.0763 10.2086
193 1 38.2562 -18.1119 9.34367
194 1 38.7937 -18.5707 8.63861
1 1 -27.9811 16.4155 7.28289
50 1 -27.3393 16.9981 7.67771
48 1 -28.2415 18.1944 8.19303
47 1 -28.1919 18.941 8.78864
44 1 -29.2561 20.595 9.74984
45 1 -28.8949 19.7231 9.98434
43 1 -29.6724 20.24 10.5017
162 1 38.0137 -23.9729 7.57798
161 1 38.824 -24.1522 8.00458
159 1 37.7565 -24.9966 8.13112
177 1 38.5623 -22.2714 9.08046
179 1 37.931 -22.008 10.0064
180 1 37.0528 -22.2133 10.3909
178 1 37.9597 -21.5308 9.16873
183 1 37.4898 -20.3083 10.8398
182 1 37.7947 -20.8859 11.4534
190 1 37.6669 -17.6974 10.5893
191 1 37.8314 -18.6319 10.3072
2 1 -28.8213 15.7958 7.25299
3 1 -29.5033 15.1295 7.2964
49 1 -27.4657 17.9707 7.60045
42 1 -29.0873 20.3319 11.2333
41 1 -28.7984 19.4527 11.3029
181 1 37.4719 -21.8084 11.182
4 1 -29.388 15.4313 8.23817
5 1 -29.5018 15.9345 9.09558
6 1 -30.4538 16.0951 9.18717
40 1 -28.1797 20.0799 11.5803
7 1 -30.2406 16.1211 10.1616
39 1 -27.7072 20.849 11.4812
38 1 -27.9421 21.698 11.8829
37 1 -28.2366 22.6449 11.6058
36 1 -27.26 22.5664 12.0199
32 1 -25.6256 21.1036 12.8097
30 1 -25.6403 20.4496 14.0554
31 1 -26.2463 20.5422 13.3448
34 1 -25.4956 22.8046 12.6396
35 1 -26.3281 22.6091 12.1235
33 1 -25.6564 22.0036 13.0695
8 1 -29.9997 17.011 10.3179
9 1 -29.5764 16.5475 11.0552
27 1 -24.6087 21.8038 13.245
10 1 -29.7578 17.0968 11.7917
11 1 -29.0378 16.7912 12.3741
28 1 -24.5462 20.8477 13.49
29 1 -25.1534 20.097 13.2792
12 1 -28.4505 17.4494 12.7167
13 1 -28.3257 18.2597 13.239
14 1 -28.935 18.9706 13.2378
16 1 -28.7687 19.363 14.4517
15 1 -28.9933 18.5281 14.0937
26 1 -23.7437 22.2501 13.5426
25 1 -23.5397 21.676 14.3617
24 1 -24.4281 21.3603 14.6081
17 1 -28.2085 19.5968 15.1813
23 1 -24.8783 21.6384 15.4233
22 1 -25.5885 21.2958 15.978
21 1 -26.0241 21.8299 15.3175
18 1 -27.365 19.6605 15.6181
19 1 -26.9334 20.3875 16.0753
20 1 -26.5838 20.9526 15.3804
ITEM: TIMESTEP
9500000
ITEM: NUMBER OF ATOMS
100
ITEM: BOX BOUNDS ff ff ff
-5.0000000000000000e+01 5.0000000000000000e+01
-5.0000000000000000e+01 5.0000000000000000e+01
-5.0000000000000000e+01 5.0000000000000000e+01
ITEM: ATOMS id type x y z
193 1 39.6835 -26.117 -1.58374
188 1 36.2325 -24.0628 -0.511563
191 1 38.0062 -25.3532 -1.04846
194 1 40.1912 -25.6091 -2.26946
197 1 39.5437 -24.7561 -0.038177
199 1 40.0648 -25.4849 1.39219
198 1 39.9286 -25.526 0.395832
154 1 40.2094 -22.7727 -0.367924
153 1 41.0227 -23.1499 -0.192047
152 1 40.6031 -23.5518 0.549632
189 1 36.432 -24.9778 -0.582247
190 1 37.1663 -24.7571 -1.06085
192 1 38.8258 -25.6863 -1.41087
196 1 39.7121 -24.7547 -0.981861
195 1 39.9825 -24.8155 -1.82393
185 1 36.0071 -22.8842 -0.648305
186 1 36.7854 -22.5926 -1.09426
187 1 36.9047 -23.5797 -1.04077
156 1 40.3615 -22.1307 0.989141
200 1 39.491 -24.733 1.54019
184 1 36.2104 -22.1558 0.0248174
183 1 36.2059 -22.5424 0.837119
180 1 36.4185 -22.1048 3.42113
182 1 35.9239 -22.2163 1.6672
158 1 39.4247 -20.6082 0.746887
155 1 40.5561 -21.9917 0.0400471
157 1 39.9553 -21.2322 1.16461
151 1 40.2192 -24.2516 1.03766
164 1 38.0618 -21.2856 1.53276
163 1 38.385 -20.5116 1.92447
181 1 36.4918 -22.2388 2.48666
159 1 39.4847 -19.9685 1.46495
161 1 38.7273 -19.1874 1.20538
177 1 34.3785 -20.1661 3.26597
178 1 35.1681 -20.6179 2.93613
179 1 35.6347 -21.465 3.17863
176 1 34.2753 -19.5588 4.00541
160 1 39.3163 -19.601 0.594523
167 1 38.3165 -20.9207 3.3299
165 1 38.7556 -21.8772 1.7523
162 1 38.5459 -20.159 0.984037
166 1 38.3301 -21.5309 2.56065
175 1 33.9009 -18.6525 4.14438
174 1 34.5538 -17.9199 4.05976
169 1 37.2866 -20.2177 3.56352
168 1 37.7958 -20.8004 4.16424
173 1 35.1945 -18.6728 3.96735
172 1 35.5088 -18.9119 4.87243
170 1 36.4357 -19.7948 3.53307
171 1 36.1187 -19.1802 4.21024
43 1 -25.024 14.877 9.64306
46 1 -25.7466 12.6815 8.99474
45 1 -25.1877 13.4244 9.3743
3 1 -29.6822 15.2285 10.4342
4 1 -29.3669 16.0935 10.1477
44 1 -24.4868 14.0224 9.3461
42 1 -25.7711 15.5821 9.61956
41 1 -26.0788 16.526 9.68933
38 1 -27.2287 16.9418 11.0343
6 1 -29.7676 17.5379 10.3886
5 1 -29.0591 16.9834 10.0372
40 1 -26.3187 17.394 9.3576
50 1 -28.1056 13.414 10.3686
48 1 -27.3551 13.3593 9.67355
49 1 -28.2899 13.7166 9.55268
47 1 -26.534 13.1248 9.22969
11 1 -30.8925 15.8826 11.1936
2 1 -29.3637 14.3493 10.6218
1 1 -28.9746 13.512 10.8358
35 1 -25.7477 17.3467 11.189
36 1 -26.2509 18.1616 11.3216
37 1 -26.9975 17.6128 11.7176
39 1 -26.8914 17.2012 10.1341
8 1 -31.1978 16.8945 9.99532
10 1 -31.0808 16.8125 11.567
7 1 -30.3222 17.164 9.7065
34 1 -25.2426 16.8828 11.7709
33 1 -24.7614 17.5091 12.3678
32 1 -23.9251 17.2556 12.6359
12 1 -31.3919 15.5541 11.9069
20 1 -28.5711 15.5153 11.2427
13 1 -31.546 14.8734 12.572
14 1 -31.051 15.405 13.1587
18 1 -28.9617 15.5831 12.4835
19 1 -29.2754 15.0432 11.7352
27 1 -23.9377 14.831 11.9373
9 1 -31.2135 17.305 10.7859
30 1 -23.2015 16.1777 12.6239
29 1 -22.5597 15.5508 12.298
28 1 -23.1559 15.4025 11.5753
31 1 -24.1395 16.3463 12.6397
21 1 -27.8447 14.9872 11.5141
17 1 -29.1266 15.2227 13.4375
26 1 -23.8898 14.6034 11.0112
22 1 -26.976 14.8458 11.9417
25 1 -24.8434 14.3386 11.0314
15 1 -30.2262 15.5682 13.6217
16 1 -29.556 16.154 13.2789
23 1 -26.2165 15.3241 11.6336
24 1 -25.5928 14.5826 11.7064
ITEM: TIMESTEP
9600000
ITEM: NUMBER OF ATOMS
100
ITEM: BOX BOUNDS ff ff ff
-5.0000000000000000e+01 5.0000000000000000e+01
-5.0000000000000000e+01 5.0000000000000000e+01
-5.0000000000000000e+01 5.0000000000000000e+01
ITEM: ATOMS id type x y z
182 1 37.838 -22.368 1.684
181 1 38.3591 -21.6453 1.59491
180 1 37.7679 -21.0717 2.13437
190 1 39.6814 -20.3785 4.81004
176 1 35.608 -18.9927 3.76091
177 1 36.5073 -19.266 3.78564
172 1 34.4207 -16.4359 4.2583
183 1 37.1694 -22.1546 2.46348
184 1 36.4568 -21.5175 2.54289
185 1 36.9214 -21.3996 3.42945
186 1 37.7534 -21.2504 3.89685
187 1 38.4047 -20.7571 4.36778
188 1 38.9038 -21.2971 3.82808
189 1 39.7833 -20.9361 4.02891
175 1 34.8591 -18.5962 4.25816
178 1 36.6016 -20.1448 3.34255
179 1 37.0998 -20.6818 2.68944
191 1 40.1078 -19.6127 4.4458
192 1 40.4663 -19.0056 5.09882
174 1 34.5703 -17.687 4.07042
170 1 35.3922 -15.8969 4.10731
171 1 34.8481 -16.3843 3.43608
173 1 33.818 -17.2209 4.29395
49 1 -23.9413 17.2778 6.32022
50 1 -24.2927 17.6967 5.5919
3 1 -22.962 18.4084 4.6856
1 1 -24.8224 17.888 4.74959
4 1 -22.2377 18.304 5.35451
5 1 -21.712 19.0207 5.13217
2 1 -23.8606 17.9401 4.74143
6 1 -21.2015 19.4468 5.83516
7 1 -21.6422 19.2858 6.70024
8 1 -20.9916 18.5619 6.77314
194 1 39.5327 -18.5603 4.15635
193 1 40.2583 -18.2097 4.60476
168 1 36.6172 -15.1791 3.59405
195 1 38.8425 -18.0558 4.63908
196 1 38.7247 -17.3976 5.30042
165 1 37.3859 -16.8408 5.08896
197 1 39.5849 -17.5013 5.74661
198 1 40.0181 -16.7611 6.26296
169 1 36.1637 -16.0157 3.57216
167 1 37.0401 -15.8921 4.14677
166 1 36.6738 -16.2536 4.9539
157 1 41.7346 -15 6.58834
42 1 -26.258 13.5231 5.79417
47 1 -23.8492 15.9551 5.6671
48 1 -24.5038 16.6174 5.87136
9 1 -20.2515 19.1551 6.90647
10 1 -20.8211 19.5825 7.59696
11 1 -20.9134 20.5723 7.70946
12 1 -21.6755 20.3421 7.25018
164 1 37.9201 -16.051 5.36618
199 1 40.2026 -15.8853 6.05915
200 1 40.8349 -16.4441 5.47875
162 1 39.086 -15.6026 6.2191
163 1 38.6802 -15.3827 5.37094
161 1 39.5751 -14.8126 5.99238
152 1 41.9122 -16.6309 6.0695
159 1 40.5428 -13.9445 6.84173
160 1 40.3286 -14.8897 6.69486
158 1 41.2402 -14.212 6.2787
156 1 42.564 -15.5482 6.57522
155 1 42.5133 -16.4256 7.00097
39 1 -28.3207 12.5991 5.71262
40 1 -27.4831 12.8333 5.94598
41 1 -27.0068 13.2871 5.21369
38 1 -28.5464 13.5715 5.67127
43 1 -26.7636 14.0445 6.38655
44 1 -26.1249 14.6781 5.97987
45 1 -25.3215 15.2084 5.65512
46 1 -24.4908 15.2363 5.30119
14 1 -23.0463 20.5272 7.69509
13 1 -22.2135 20.7288 7.97951
151 1 41.4116 -15.8504 5.87539
153 1 41.6384 -17.2696 6.73011
154 1 41.6538 -16.4586 7.29801
36 1 -29.5919 14.0235 7.051
37 1 -28.8184 13.7852 6.5243
32 1 -30.2026 13.8085 8.47585
35 1 -30.4246 14.6188 6.67644
34 1 -30.4435 14.6431 7.66184
31 1 -29.5382 14.4765 8.66647
33 1 -31.0603 14.1783 8.20097
25 1 -28.002 18.0037 10.1631
24 1 -27.2561 18.6453 10.1937
23 1 -27.6239 19.5557 10.1667
22 1 -26.7922 19.5269 9.64013
21 1 -26.4744 18.9625 8.92294
28 1 -28.7807 16.3357 9.95948
30 1 -29.5862 14.9277 9.59995
29 1 -29.5571 15.7865 9.90433
17 1 -23.8658 20.2536 9.98652
18 1 -24.5909 19.6166 9.9749
19 1 -24.8425 19.4408 9.03998
16 1 -23.0662 19.91 9.40936
15 1 -23.3777 20.096 8.51886
27 1 -27.8671 16.1374 10.334
20 1 -25.7145 19.4393 8.56424
26 1 -28.1453 17.0648 10.229
ITEM: TIMESTEP
9700000
ITEM: NUMBER OF ATOMS
100
ITEM: BOX BOUNDS ff ff ff
-5.0000000000000000e+01 5.0000000000000000e+01
-5.0000000000000000e+01 5.0000000000000000e+01
-5.0000000000000000e+01 5.0000000000000000e+01
ITEM: ATOMS id type x y z
181 1 30.4429 -10.207 -0.827427
183 1 29.7806 -9.59 0.603915
184 1 29.9533 -8.89454 1.242
182 1 29.9606 -10.3242 0.0276897
185 1 30.8855 -8.86466 1.38386
178 1 31.4111 -11.7684 0.350291
180 1 30.468 -11.1609 -0.52035
179 1 30.5338 -11.1981 0.438546
187 1 31.9231 -8.67072 1.04426
186 1 31.1737 -8.29018 0.578469
188 1 32.6104 -9.34671 1.21506
189 1 33.468 -8.90194 1.01364
159 1 34.4627 -12.311 1.68751
158 1 35.1762 -12.3248 1.00272
157 1 35.6824 -12.3518 1.80377
175 1 31.9867 -12.6526 0.67183
174 1 31.7558 -12.4243 1.54544
169 1 32.2138 -13.3473 4.01609
168 1 32.083 -13.0915 4.95936
156 1 36.4981 -12.1586 2.21199
155 1 37.2896 -12.6457 1.95369
177 1 30.6699 -12.2691 0.151467
176 1 31.1177 -13.0142 0.657505
154 1 38.1608 -12.4282 2.03527
190 1 33.9103 -8.57444 1.80242
192 1 35.2303 -8.74329 2.77635
191 1 34.6825 -8.16519 2.27911
161 1 34.6275 -13.9152 2.36494
160 1 34.189 -13.2094 1.7433
165 1 34.2877 -13.4406 4.85569
164 1 34.1306 -14.3878 4.56069
173 1 31.6493 -12.2217 2.54308
170 1 32.4522 -13.625 3.12048
172 1 32.323 -11.9271 3.16187
171 1 32.9031 -12.7686 3.17267
166 1 33.3683 -13.546 4.57506
167 1 32.9153 -13.2395 5.4162
153 1 37.9248 -11.5626 2.29572
199 1 37.2491 -9.56358 3.95041
198 1 37.6088 -8.97351 4.62577
197 1 37.312 -8.09801 4.63185
194 1 34.8293 -7.77762 3.64263
196 1 36.8201 -7.54053 3.88234
195 1 35.8542 -7.75451 4.0048
193 1 34.7602 -8.70652 3.62639
162 1 33.9721 -14.249 2.95364
163 1 34.5406 -14.552 3.70061
152 1 38.1045 -10.6408 2.37791
151 1 37.5913 -9.98046 2.82921
200 1 37.2689 -10.4417 3.59986
9 1 -25.5926 10.053 5.98784
8 1 -25.4143 9.87786 6.92561
6 1 -26.5201 9.83569 8.38518
7 1 -26.2344 9.76864 7.40161
5 1 -27.1306 10.398 8.88043
18 1 -25.4364 7.86504 7.23718
16 1 -25.5052 8.78178 5.81865
17 1 -25.751 8.61906 6.72637
15 1 -25.6027 8.70485 4.82552
14 1 -25.2823 9.49262 4.39136
13 1 -25.0553 10.1028 3.6944
12 1 -25.6232 10.8163 4.04788
10 1 -25.4317 10.4392 5.15596
11 1 -25.2088 11.2347 4.75713
2 1 -25.5282 11.1604 9.232
4 1 -26.3959 10.512 9.40063
3 1 -26.289 11.4064 9.80085
20 1 -24.3827 8.55601 6.88082
19 1 -24.9475 8.58391 7.68013
25 1 -22.4136 9.96541 8.01115
26 1 -22.942 9.71462 8.82649
27 1 -23.1132 9.29775 9.67519
23 1 -23.6183 10.5128 6.92129
24 1 -23.2156 9.99056 7.51492
50 1 -25.7254 10.0569 10.0861
1 1 -24.947 10.5066 9.64952
21 1 -24.3797 9.49811 6.96811
22 1 -24.3306 10.1653 6.34836
28 1 -22.8746 9.83814 10.4316
29 1 -23.8186 9.87323 10.2571
46 1 -27.7113 11.4707 11.675
30 1 -23.4738 10.7132 10.6978
47 1 -27.6269 11.3476 10.7074
48 1 -26.9341 11.1056 11.2769
31 1 -23.9009 10.69 11.5612
49 1 -26.5009 10.514 10.633
44 1 -28.7025 10.616 12.2186
33 1 -24.7454 11.0392 10.7072
45 1 -28.5667 11.5489 12.1628
35 1 -25.0953 11.6964 12.1789
32 1 -24.7472 10.3364 11.437
43 1 -28.7459 10.8801 11.2695
41 1 -28.3763 9.5283 11.632
42 1 -28.6781 9.98047 10.865
39 1 -26.7672 10.029 12.2194
40 1 -27.4708 9.41826 12.0122
37 1 -26.5909 11.7087 12.8474
36 1 -25.6436 11.437 12.9151
34 1 -25.3805 11.1735 11.3931
38 1 -26.6568 10.9938 12.2414
ITEM: TIMESTEP
9800000
ITEM: NUMBER OF ATOMS
100
ITEM: BOX BOUNDS ff ff ff
-5.0000000000000000e+01 5.0000000000000000e+01
-5.0000000000000000e+01 5.0000000000000000e+01
-5.0000000000000000e+01 5.0000000000000000e+01
ITEM: ATOMS id type x y z
154 1 25.4649 -16.1159 -6.28666
155 1 26.2579 -16.6428 -6.10406
156 1 26.4266 -15.7816 -5.72741
151 1 24.5634 -13.9495 -6.17098
200 1 23.7706 -13.6697 -5.77385
199 1 23.6939 -14.5992 -5.69626
152 1 25.4362 -14.2532 -6.36323
153 1 25.435 -15.2141 -6.72285
185 1 21.5816 -12.9148 -3.44699
159 1 27.7122 -14.8532 -7.38947
158 1 27.2267 -15.5077 -6.95331
163 1 28.8301 -15.1515 -5.30224
164 1 29.7355 -14.9053 -5.22979
183 1 23.0404 -11.9216 -3.70828
181 1 24.1833 -10.8405 -3.06085
157 1 27.0854 -15.1883 -6.09631
166 1 30.1186 -13.7408 -4.18999
171 1 27.2778 -12.1095 -3.87917
167 1 29.1617 -13.6739 -4.55623
165 1 29.8405 -14.6635 -4.25986
180 1 23.8371 -9.96776 -3.10225
170 1 27.5667 -12.716 -3.15562
195 1 23.6299 -15.5399 -3.17984
196 1 24.3597 -15.1394 -3.65319
198 1 23.7466 -14.8378 -4.77424
197 1 23.8692 -14.396 -3.94065
187 1 21.7223 -13.7295 -4.09881
184 1 22.4589 -12.6001 -3.36188
186 1 21.8091 -13.8322 -3.17804
160 1 28.2768 -14.1303 -7.15803
162 1 28.8092 -14.1501 -5.57881
182 1 23.7846 -11.3716 -3.70181
179 1 23.9318 -9.01503 -3.43605
161 1 28.4271 -14.6681 -6.36898
172 1 27.6821 -11.4399 -3.41494
178 1 24.8477 -8.95909 -3.08055
177 1 25.647 -8.94146 -3.75833
175 1 26.4251 -9.93163 -4.07108
174 1 26.7314 -10.779 -4.32811
173 1 26.9571 -10.7935 -3.42874
169 1 28.2307 -13.4406 -3.19497
168 1 28.9955 -13.8265 -3.6137
176 1 25.4722 -9.74724 -4.17733
194 1 22.8715 -14.9072 -3.13966
193 1 22.7851 -15.8238 -2.69974
192 1 22.7848 -16.5244 -3.32454
188 1 20.8853 -14.249 -3.87934
190 1 21.0911 -15.8417 -3.21382
189 1 20.5286 -15.137 -3.50048
191 1 22.0486 -15.9348 -3.38867
25 1 -33.0368 7.87875 3.76542
17 1 -34.7539 6.90003 3.14732
18 1 -34.2959 6.54819 2.3018
20 1 -35.0181 7.72039 2.4105
19 1 -34.868 7.13393 1.7041
23 1 -32.9111 7.07777 2.73548
22 1 -33.5259 7.51774 2.23791
21 1 -34.1831 8.2262 2.25416
24 1 -32.2776 7.60939 3.26899
26 1 -32.1512 7.84377 4.32179
27 1 -31.4414 7.50967 4.92146
5 1 -34.4187 0.457889 6.80201
8 1 -33.8694 2.66906 6.12532
9 1 -33.3823 2.89218 6.88215
6 1 -33.9872 1.1529 6.23936
7 1 -34.3279 1.97625 6.57849
13 1 -33.5228 4.55223 4.53865
12 1 -33.8681 3.69945 4.8309
14 1 -34.5304 4.49579 4.29633
16 1 -34.9937 5.96569 3.41658
15 1 -34.6301 5.43602 4.0816
29 1 -31.6804 8.92226 5.91846
28 1 -31.6557 8.43454 5.07244
31 1 -32.2967 9.98564 7.46976
30 1 -31.8383 9.58584 6.67722
4 1 -34.5928 1.23989 7.29881
2 1 -33.6732 1.84302 7.8065
3 1 -34.3786 1.28547 8.21704
1 1 -34.4636 2.36182 7.57107
10 1 -33.5424 3.68493 6.33226
50 1 -34.2663 2.30815 8.5486
11 1 -33.2601 4.13145 5.52758
44 1 -32.5871 5.62938 6.91402
34 1 -32.7911 9.50913 8.73613
33 1 -32.1477 10.2971 8.8508
32 1 -31.7308 9.67657 8.24584
49 1 -34.4594 3.24229 8.27358
48 1 -33.5309 3.43225 8.55822
46 1 -33.4116 4.419 7.16041
45 1 -33.1066 5.15997 7.6662
43 1 -32.4583 6.32966 7.6739
42 1 -32.8875 6.9975 7.15553
41 1 -33.1656 7.92194 6.95955
40 1 -32.6464 8.49661 6.45402
39 1 -33.1706 9.27851 6.64713
38 1 -33.9038 9.2683 7.24333
37 1 -34.5516 9.91278 6.98655
36 1 -34.2698 10.1066 7.82609
35 1 -33.7039 9.71836 8.48287
47 1 -33.7604 4.18458 8.08143
ITEM: TIMESTEP
9900000
ITEM: NUMBER OF ATOMS
100
ITEM: BOX BOUNDS ff ff ff
-5.0000000000000000e+01 5.0000000000000000e+01
-5.0000000000000000e+01 5.0000000000000000e+01
-5.0000000000000000e+01 5.0000000000000000e+01
ITEM: ATOMS id type x y z
186 1 25.138 -8.87165 -9.15377
187 1 26.013 -8.96236 -9.47944
188 1 25.9832 -8.20743 -10.1147
193 1 28.1736 -9.79141 -10.7521
190 1 26.4661 -8.8767 -11.5386
189 1 25.924 -8.1339 -11.0886
192 1 27.5353 -9.06183 -10.6796
191 1 27.0997 -8.32425 -11.0865
173 1 29.5878 -5.04592 -7.20955
184 1 24.6191 -8.69189 -7.27068
183 1 23.9994 -8.02518 -7.09611
182 1 24.332 -7.81839 -7.98451
185 1 25.0963 -8.95548 -8.12632
196 1 29.5849 -9.42935 -9.406
195 1 29.7104 -9.98797 -10.1635
180 1 25.0536 -6.99258 -8.60454
181 1 24.9063 -7.94862 -8.73656
179 1 25.9263 -7.26971 -8.34437
194 1 29.0319 -10.2693 -10.8876
178 1 26.2585 -6.34334 -8.29612
177 1 26.9141 -5.72022 -8.53281
176 1 27.4946 -5.1056 -8.08717
175 1 27.8603 -5.75773 -7.51852
174 1 28.7549 -5.41003 -7.51491
172 1 30.1671 -5.82413 -7.33927
171 1 30.8601 -4.9733 -7.39033
200 1 30.8419 -9.84089 -6.66233
197 1 29.7293 -9.83615 -8.54261
199 1 30.9633 -9.197 -7.39932
198 1 30.2558 -9.75834 -7.76897
156 1 28.9303 -8.33437 -3.12417
158 1 30.4176 -7.75602 -3.61806
157 1 29.5357 -8.03411 -3.7975
170 1 31.074 -4.95448 -8.25624
168 1 29.6155 -5.56184 -8.79589
169 1 30.116 -5.03587 -8.22293
167 1 29.4955 -6.34393 -8.26268
151 1 30.1862 -10.2356 -6.01171
152 1 30.0843 -9.49085 -5.37232
155 1 29.4996 -9.16288 -3.28852
153 1 29.5428 -10.0075 -4.73476
154 1 29.9935 -9.55654 -4.05027
160 1 30.496 -8.0386 -5.28247
159 1 30.8159 -7.58294 -4.4826
161 1 29.744 -7.46127 -5.01421
163 1 29.8698 -6.14539 -5.78539
162 1 30.1539 -6.55743 -4.85478
166 1 29.1666 -6.96173 -7.54083
165 1 29.4649 -6.77818 -6.60998
164 1 29.2402 -5.87407 -6.44639
9 1 -32.2188 5.58768 4.95932
7 1 -32.7309 4.91452 6.13965
8 1 -33.0708 5.55483 5.51539
5 1 -33.5109 5.03324 7.43747
6 1 -32.5396 4.95314 7.10046
13 1 -31.9995 7.10062 6.83072
12 1 -31.1884 6.70945 6.60581
11 1 -30.9628 6.29766 5.78327
10 1 -31.8291 5.9056 5.75714
4 1 -33.4047 4.60669 8.24461
14 1 -32.0953 7.09812 7.81392
15 1 -32.4222 7.97951 7.59048
1 1 -33.2715 4.32698 9.92346
3 1 -33.3482 4.90805 9.11805
2 1 -34.0756 4.36615 9.37498
16 1 -33.003 7.99807 8.30717
17 1 -33.4284 7.19254 7.94547
50 1 -32.46 3.77398 10.215
48 1 -31.0437 3.0793 9.57948
49 1 -31.9062 2.9449 9.96645
46 1 -30.9267 4.54203 10.057
47 1 -30.4542 3.75531 9.95128
43 1 -31.6796 6.08107 11.0993
45 1 -30.846 5.50978 9.93945
44 1 -31.4955 5.25218 10.5868
18 1 -34.3555 7.11903 7.85776
19 1 -34.5043 7.50916 8.71427
20 1 -34.8632 6.75612 9.33568
39 1 -32.1961 8.44911 10.71
40 1 -31.8399 7.59958 10.7882
35 1 -33.4618 11.1301 11.6808
42 1 -31.9539 6.13206 10.194
41 1 -31.8089 7.08747 10.0152
22 1 -34.3722 6.77997 10.857
21 1 -34.1274 6.80769 9.94208
37 1 -33.1547 9.69457 11.1687
38 1 -33.0813 8.83975 10.7522
36 1 -33.5681 10.1924 12.0084
34 1 -34.3 10.8881 11.2757
33 1 -35.0215 10.574 11.8149
23 1 -35.0304 7.11817 11.4373
24 1 -35.5564 7.74759 11.8938
25 1 -36.1605 8.27405 11.4015
26 1 -36.3402 9.14827 11.5818
31 1 -36.2042 10.1605 13.1544
27 1 -36.1878 8.72564 12.4029
32 1 -35.5092 10.4503 12.6307
28 1 -36.3378 7.89134 12.8888
29 1 -36.6825 8.65402 13.433
30 1 -35.9742 9.30418 13.4479
ITEM: TIMESTEP
10000000
ITEM: NUMBER OF ATOMS
100
ITEM: BOX BOUNDS ff ff ff
-5.0000000000000000e+01 5.0000000000000000e+01
-5.0000000000000000e+01 5.0000000000000000e+01
-5.0000000000000000e+01 5.0000000000000000e+01
ITEM: ATOMS id type x y z
161 1 25.673 -8.994 -18.1343
159 1 24.3732 -8.91573 -18.0133
160 1 25.0844 -8.19803 -18.1003
165 1 28.626 -8.25775 -18.0962
164 1 27.8393 -8.78718 -18.2778
162 1 26.3733 -9.15354 -17.5078
163 1 26.9161 -9.15005 -18.2452
158 1 23.5933 -9.36116 -18.3498
157 1 23.3812 -8.9752 -17.4863
166 1 29.2191 -7.4689 -17.9929
167 1 30.0802 -7.08013 -17.919
154 1 23.7872 -9.74562 -15.8614
153 1 23.3386 -10.5921 -15.7594
156 1 23.4917 -9.73795 -16.849
155 1 24.3093 -10.1456 -16.5973
168 1 30.021 -8.0927 -17.7284
169 1 29.5682 -8.88366 -17.3452
170 1 30.2531 -9.02485 -16.6687
171 1 29.981 -9.15364 -15.7688
172 1 30.7674 -8.69142 -15.6324
180 1 27.9136 -6.35468 -15.9688
179 1 28.6263 -6.32445 -16.5674
152 1 22.475 -10.9962 -15.595
151 1 21.7877 -11.089 -14.89
200 1 21.3956 -10.2251 -15.0288
199 1 21.7534 -9.92533 -14.2063
193 1 23.5573 -6.72574 -14.6611
184 1 27.2349 -4.0782 -15.9612
173 1 30.007 -8.11351 -15.6866
174 1 30.725 -7.61244 -15.2699
177 1 29.3311 -6.01052 -15.4077
182 1 27.8566 -5.1014 -15.4321
183 1 28.0956 -4.48945 -16.1034
181 1 27.3302 -5.89843 -15.3734
175 1 30.3416 -6.72283 -15.5297
176 1 30.2371 -5.76026 -15.1691
178 1 28.788 -5.56553 -16.0485
197 1 22.6954 -8.52174 -14.9544
198 1 22.3705 -9.1054 -14.1881
195 1 23.9097 -7.78657 -14.2163
196 1 23.632 -8.20789 -14.9702
194 1 23.9731 -6.94663 -13.7493
191 1 24.8375 -6.51006 -15.5022
192 1 24.2654 -7.17303 -14.9949
190 1 24.7247 -7.34235 -15.954
189 1 25.6128 -7.24926 -16.3828
188 1 25.3578 -6.66206 -17.0326
187 1 25.7711 -5.91943 -16.5428
186 1 25.9024 -5.03417 -16.1557
185 1 26.837 -4.84437 -16.4293
29 1 -23.8809 4.96168 1.05133
30 1 -24.1925 5.87248 0.869248
32 1 -22.6204 6.41714 1.43223
31 1 -23.2594 5.93537 0.904629
24 1 -27.7408 4.08123 1.31003
25 1 -26.769 4.11184 1.09303
22 1 -28.2676 4.15774 0.39823
23 1 -28.5769 3.64281 1.16378
26 1 -26.1176 4.87191 1.03045
27 1 -25.2731 5.23925 0.860352
28 1 -24.7177 4.52836 1.00087
33 1 -22.5205 7.13946 0.762061
34 1 -21.666 6.97361 1.13531
35 1 -20.7689 6.70086 1.30344
42 1 -22.194 10.9307 2.18397
37 1 -20.6433 7.82752 1.5047
36 1 -20.1487 7.27343 0.878792
38 1 -20.7881 8.7168 1.80388
40 1 -21.9121 9.43815 1.59382
41 1 -21.6309 10.3527 1.69171
18 1 -27.4532 7.12929 1.07399
20 1 -27.9931 5.5041 0.991799
19 1 -27.5314 6.24347 0.740296
21 1 -28.6397 4.80558 0.981566
15 1 -25.5347 8.1245 1.38356
14 1 -24.852 7.72489 1.85777
17 1 -26.7024 7.7291 0.814156
16 1 -25.981 7.19769 1.01696
43 1 -22.8901 10.3319 1.89266
45 1 -23.3333 9.5735 3.15123
44 1 -22.8562 10.3652 2.82148
39 1 -21.5437 8.89039 2.32108
46 1 -22.7131 8.87855 3.50459
47 1 -23.3619 8.70891 4.19761
13 1 -24.1115 7.70957 2.4553
11 1 -24.643 6.9546 4.06757
12 1 -24.1101 7.38688 3.33788
5 1 -22.1776 8.34604 6.32862
3 1 -22.3738 9.22707 4.74245
2 1 -22.3301 10.0014 4.15576
50 1 -23.0617 10.912 3.82602
1 1 -22.1929 10.5803 3.46609
48 1 -23.3538 9.67717 4.18081
49 1 -23.7424 10.5631 4.37712
10 1 -24.2436 7.5085 4.7348
9 1 -23.5571 6.8361 4.96604
8 1 -22.6386 7.07326 4.75658
6 1 -22.2305 7.45973 5.90362
7 1 -22.0648 6.63334 5.38433
4 1 -22.0973 8.9417 5.60561
