ITEM: TIMESTEP
0
ITEM: NUMBER OF ATOMS
100
ITEM: BOX BOUNDS ff ff ff
-5.0000000000000000e+01 5.0000000000000000e+01
-5.0000000000000000e+01 5.0000000000000000e+01
-5.0000000000000000e+01 5.0000000000000000e+01
ITEM: ATOMS id type x y z
10 1 -0.562615 -1.88534 0.586547
9 1 -1.11053 -2.7247 0.773066
12 1 0.900119 -1.85741 0.341603
14 1 1.49992 -2.46371 1.03172
11 1 0.218851 -1.31899 0.822111
13 1 1.61542 -1.46083 0.948124
8 1 -0.569166 -2.58091 1.57746
6 1 -0.0780815 -1.75393 2.53245
7 1 -0.973868 -2.03791 2.34945
16 1 1.11208 -1.78052 2.08868
15 1 1.8005 -2.37686 1.90651
18 1 2.05998 -1.73969 2.93466
17 1 1.43519 -1.04657 2.54771
19 1 2.61596 -1.0073 2.57352
3 1 -1.8549 -1.87123 4.19618
5 1 -0.278113 -2.23243 3.39173
4 1 -1.25158 -2.27652 3.5855
28 1 0.241746 -2.06442 4.52466
2 1 -1.68669 -1.00011 4.52271
27 1 -0.148489 -1.25449 4.49664
50 1 -0.63606 -0.410308 4.55974
1 1 -1.03684 -0.891445 3.80849
29 1 0.888118 -1.42482 4.20733
26 1 0.0601176 -0.65977 3.70147
25 1 0.910405 -0.258337 4.03526
23 1 2.422 -0.504868 3.98152
24 1 1.61187 -0.555148 4.55914
20 1 3.27076 -0.921541 3.31015
22 1 3.20419 -0.10525 4.33487
48 1 -0.855307 0.852622 4.63464
21 1 3.22605 0.0440612 3.38196
31 1 1.52873 -1.60034 5.83787
151 1 -0.438916 -0.972281 5.77811
30 1 1.05874 -1.21285 5.09054
152 1 0.235248 -0.410795 6.2065
32 1 1.36717 -0.69883 6.1676
49 1 -0.0235279 0.316091 4.74109
46 1 -0.807957 1.38407 5.81155
47 1 -1.32351 0.705198 5.42502
153 1 -0.583109 0.10034 6.10679
199 1 -1.56416 -2.16655 6.5438
198 1 -1.30387 -2.04121 7.4735
157 1 -2.84725 -0.73278 7.14232
156 1 -1.91292 -0.941761 6.81264
200 1 -0.96775 -1.56169 6.25703
155 1 -1.14862 -0.9466 7.48441
154 1 -1.15891 -0.243361 6.7678
33 1 1.49307 -0.288436 7.04546
39 1 -0.510697 0.10408 7.78156
45 1 -1.68583 1.6425 6.33733
44 1 -1.71284 1.60276 7.30778
196 1 -1.93621 -3.53871 8.50967
197 1 -1.54772 -2.79022 8.03918
195 1 -1.47393 -3.08894 9.18229
158 1 -3.46887 -0.687196 7.88244
159 1 -3.59698 -0.886351 8.87603
160 1 -2.64492 -0.950363 9.07389
40 1 -1.4198 -0.0876872 8.07938
37 1 0.0892641 -1.15904 8.49617
36 1 0.959864 -1.18952 8.92391
38 1 0.000762145 -0.147134 8.5924
34 1 2.00204 -0.253528 7.88905
35 1 1.63174 -1.05952 8.25359
41 1 -1.69114 0.679117 8.53282
42 1 -1.8408 1.60753 8.53187
43 1 -1.03932 1.92076 8.05085
194 1 -1.64595 -2.2404 9.46625
193 1 -1.69099 -2.9146 10.224
192 1 -1.82246 -2.00692 10.5896
167 1 0.0339904 -1.69257 9.80969
161 1 -3.03518 -0.194986 9.55724
165 1 -0.808864 -0.30873 9.9917
166 1 -0.282612 -0.874221 9.40407
168 1 0.891803 -1.3703 10.1817
162 1 -2.41737 0.110871 10.1922
163 1 -1.7984 0.536741 9.6137
164 1 -1.12086 0.608041 10.2214
171 1 0.629358 -2.60413 11.2528
170 1 1.47328 -2.10706 11.1101
172 1 0.248407 -1.87638 11.7459
191 1 -1.57148 -1.45232 11.348
190 1 -1.70624 -1.36578 12.3068
173 1 -0.583866 -1.37496 11.8375
174 1 -0.68732 -0.657998 12.4568
169 1 1.45286 -1.15682 10.9509
175 1 0.23916 -0.660117 12.295
176 1 1.20014 -0.903813 11.9992
177 1 2.01375 -1.18396 12.4305
189 1 -1.8667 -2.14752 12.8495
188 1 -2.34331 -1.57934 13.4266
187 1 -3.01188 -1.1034 13.8245
178 1 2.13026 -1.16396 13.4486
185 1 -2.17581 -1.74199 15.0887
179 1 2.4889 -1.68131 14.2603
186 1 -2.69204 -0.969745 14.7164
183 1 -0.488625 -1.05458 15.4712
184 1 -1.30835 -1.20314 15.0857
182 1 0.371935 -1.20009 15.0906
181 1 1.27947 -1.13768 15.4862
180 1 1.85429 -1.17102 14.7453
ITEM: TIMESTEP
100000
ITEM: NUMBER OF ATOMS
100
ITEM: BOX BOUNDS ff ff ff
-5.0000000000000000e+01 5.0000000000000000e+01
-5.0000000000000000e+01 5.0000000000000000e+01
-5.0000000000000000e+01 5.0000000000000000e+01
ITEM: ATOMS id type x y z
13 1 1.01298 8.56102 -1.17138
12 1 1.86654 8.39908 -1.60306
7 1 1.45365 6.18487 -2.19986
8 1 0.888771 6.65135 -1.53567
11 1 1.31704 8.71229 -2.35852
10 1 0.967553 7.9785 -2.89576
9 1 0.879886 7.52286 -2.04994
3 1 3.3613 5.31398 -3.57055
4 1 2.89757 6.1102 -3.72203
5 1 2.31751 6.92103 -3.67809
6 1 1.75115 6.6963 -2.95089
14 1 0.440219 9.24112 -1.42088
15 1 -0.154349 8.43077 -1.57302
2 1 2.8546 4.59302 -3.23631
50 1 2.89707 5.40458 -1.81306
1 1 2.38439 5.05782 -2.53198
28 1 0.726965 9.38569 1.93898
17 1 -0.210494 8.06139 0.0297978
18 1 -0.425055 8.70461 0.767393
19 1 -0.811764 9.01779 -0.0307996
16 1 -0.00802944 7.84243 -0.869741
42 1 -0.335774 3.44855 0.268908
44 1 1.12856 3.83467 0.592353
45 1 1.89165 3.79567 -0.0250307
43 1 0.289371 4.23311 0.325738
46 1 1.95999 4.52847 0.567529
49 1 3.15229 4.90582 -1.09704
48 1 3.49995 4.88018 -0.149173
29 1 0.209509 8.58522 2.0015
33 1 -0.927928 6.40698 1.01913
31 1 0.760171 6.92578 1.36005
30 1 0.36069 7.68683 1.66101
27 1 1.29091 10.0552 1.51245
26 1 1.32245 9.30023 0.945849
20 1 -1.34197 9.20246 0.729148
21 1 -0.508423 9.72174 0.8217
25 1 1.62468 8.95949 0.0115598
41 1 -0.560697 2.90915 1.04228
38 1 -2.90392 4.28 0.626429
39 1 -2.18237 3.59738 0.542415
40 1 -1.46522 3.29439 1.27333
32 1 -0.0528935 6.31095 1.42381
47 1 2.52861 4.93654 -0.133306
34 1 -1.27628 5.5777 1.45741
35 1 -2.17181 5.39619 1.75894
22 1 0.0563681 9.80675 0.06545
23 1 0.775839 10.4598 -0.330816
24 1 1.60838 9.90774 -0.0699676
36 1 -2.00663 4.46028 1.70818
37 1 -2.11491 4.81846 0.842965
154 1 2.29922 5.18198 7.37939
153 1 2.77471 5.70671 8.04869
166 1 -1.71011 8.41271 8.45061
167 1 -2.0772 7.52689 8.60969
156 1 2.58533 6.49228 6.32312
155 1 2.74636 5.58257 6.62251
165 1 -1.33163 8.10001 7.61346
164 1 -0.425924 7.87635 7.97991
162 1 0.688054 8.13215 9.40039
163 1 0.00414211 8.23216 8.71761
158 1 2.33182 7.20203 7.17205
157 1 2.6073 6.34643 7.26673
152 1 3.13239 6.52998 8.27403
200 1 3.59172 7.01875 9.44707
151 1 3.20706 6.14871 9.1385
161 1 1.6942 8.1074 9.40292
159 1 2.55035 7.65467 7.99518
160 1 2.31324 7.55648 8.90124
199 1 3.24596 7.57427 10.1782
170 1 -2.24312 5.46482 9.50045
171 1 -1.28335 5.28651 9.71255
173 1 -0.477856 5.53338 11.4057
174 1 0.317252 5.60689 10.865
176 1 1.90479 5.58383 11.1311
177 1 1.88268 5.54272 12.1134
178 1 1.06875 5.8741 12.4654
169 1 -1.82693 6.29669 9.45893
168 1 -2.37216 7.09057 9.37484
175 1 1.17022 5.36482 10.5218
197 1 3.70123 7.83705 11.4418
196 1 3.26211 8.67001 11.5366
198 1 4.05362 8.02046 10.6187
172 1 -1.00238 5.48813 10.6016
181 1 -0.204851 7.47991 12.0121
180 1 0.684284 7.05128 11.777
179 1 0.949885 6.79 12.6896
183 1 0.123358 8.54838 11.8228
194 1 3.41152 9.65146 12.0976
191 1 2.5621 11.406 11.4641
190 1 2.48203 11.3079 12.4703
195 1 3.02749 9.51274 11.1232
192 1 3.48441 11.2142 11.8973
182 1 -0.620362 8.22188 12.3745
185 1 0.158315 9.81588 11.0838
184 1 0.0955643 8.88858 10.9181
189 1 1.52416 11.3036 12.5947
186 1 -0.239225 10.5553 11.5626
193 1 3.8125 10.3545 11.51
187 1 0.137904 10.157 12.2799
188 1 0.755544 10.9572 12.1709
ITEM: TIMESTEP
200000
ITEM: NUMBER OF ATOMS
100
ITEM: BOX BOUNDS ff ff ff
-5.0000000000000000e+01 5.0000000000000000e+01
-5.0000000000000000e+01 5.0000000000000000e+01
-5.0000000000000000e+01 5.0000000000000000e+01
ITEM: ATOMS id type x y z
40 1 4.13099 8.71569 -8.95461
39 1 3.70245 9.50231 -9.32407
37 1 4.03412 9.69631 -10.3906
42 1 3.32558 7.74313 -10.3624
41 1 3.74222 8.5297 -9.80707
45 1 4.31561 7.33842 -9.1493
38 1 3.11517 9.73606 -9.98434
32 1 5.84291 11.7498 -12.3553
29 1 6.97727 9.45761 -11.9971
28 1 7.51498 8.69039 -11.9638
36 1 4.23993 10.1359 -11.1851
35 1 4.78089 10.7495 -11.6282
30 1 6.94607 10.1679 -12.6332
31 1 6.3868 11.0717 -12.7577
43 1 4.18986 7.83792 -10.6148
44 1 4.50247 7.09663 -10.0656
47 1 2.97577 6.07852 -9.13084
46 1 3.77323 6.54029 -9.19822
33 1 5.25781 11.5775 -13.0605
22 1 6.43839 10.5567 -9.16196
23 1 7.2691 10.7008 -9.5712
24 1 7.76121 10.0846 -10.1655
27 1 7.67681 8.87645 -11.0186
34 1 4.77007 10.7634 -12.5909
25 1 7.42277 9.25173 -9.81251
26 1 6.8011 8.83946 -10.5575
48 1 2.54567 6.58941 -8.43647
49 1 1.80956 6.25682 -7.97046
1 1 2.11972 7.65972 -6.8086
21 1 6.32462 10.362 -8.16059
19 1 5.16912 9.95733 -6.77537
17 1 4.17955 10.7379 -6.25711
18 1 4.87456 10.2063 -5.86024
20 1 5.76264 9.94738 -7.5038
8 1 1.27382 9.49829 -3.8496
7 1 1.08795 10.2902 -4.45917
3 1 1.33561 8.83637 -6.08222
9 1 2.01569 9.90807 -3.37339
10 1 2.56168 9.01832 -3.39102
11 1 3.35426 8.68452 -3.74281
2 1 2.00267 8.17598 -6.04183
50 1 2.09099 6.92605 -7.35815
14 1 3.2123 9.49462 -4.82364
13 1 4.02787 9.17157 -4.43693
15 1 3.52606 10.3984 -4.51615
12 1 4.3028 8.4681 -3.92406
16 1 3.89089 10.6703 -5.33642
5 1 1.68662 10.0403 -6.05487
4 1 0.869748 9.61861 -5.77083
6 1 1.14107 10.5567 -5.43322
196 1 3.63448 14.1845 7.33482
194 1 4.96945 13.7143 7.27174
193 1 5.42625 13.0648 7.79867
192 1 5.62744 13.009 8.881
197 1 3.9707 13.578 8.08534
195 1 4.41632 14.5743 6.95602
191 1 5.74807 12.5418 9.6608
190 1 5.12394 11.7965 9.56696
198 1 4.44346 14.1066 8.78644
199 1 5.07665 14.5735 8.27181
151 1 5.8809 16.0098 8.09756
200 1 5.21549 15.4233 7.81499
152 1 6.0203 16.6252 8.8595
185 1 5.43326 9.52216 11.2055
186 1 6.23437 9.68488 10.6905
189 1 5.94674 11.2628 9.60634
188 1 6.63831 10.5862 9.43031
187 1 6.49676 9.71547 9.75196
155 1 6.94196 15.0004 9.59584
158 1 8.4615 15.5332 11.5796
153 1 6.76984 16.7993 9.34832
154 1 6.81864 15.8584 9.21673
156 1 6.86665 15.189 10.5288
157 1 7.58126 15.5725 11.0722
184 1 5.52857 10.1629 11.8693
183 1 5.87098 10.2301 12.8243
182 1 6.28797 9.57475 12.2234
169 1 10.877 12.2617 13.6375
160 1 8.94976 14.6974 12.2332
159 1 8.80398 15.5802 12.4889
161 1 9.00388 13.8658 12.7649
168 1 11.6454 12.7474 13.3157
167 1 12.1884 13.5054 12.9193
166 1 11.4279 13.4968 12.2891
165 1 11.763 14.0189 11.6014
181 1 7.17974 9.28779 11.9717
177 1 9.57738 8.80989 12.1806
180 1 7.55922 8.55237 11.5717
179 1 8.53257 8.58253 11.7614
176 1 9.68486 8.38625 13.0029
175 1 9.84446 9.35457 13.1035
178 1 9.33004 8.11667 11.5087
174 1 10.555 9.58769 12.5193
171 1 10.7316 10.6232 12.9599
170 1 10.6688 11.3549 13.5411
162 1 9.94209 13.9577 12.7484
163 1 10.4247 14.1832 11.9268
164 1 11.1965 14.7016 11.8514
173 1 11.1104 9.0692 13.1035
172 1 11.4873 9.9965 12.9833
ITEM: TIMESTEP
300000
ITEM: NUMBER OF ATOMS
100
ITEM: BOX BOUNDS ff ff ff
-5.0000000000000000e+01 5.0000000000000000e+01
-5.0000000000000000e+01 5.0000000000000000e+01
-5.0000000000000000e+01 5.0000000000000000e+01
ITEM: ATOMS id type x y z
45 1 -2.43501 17.2424 -21.7586
41 1 -2.87902 18.9718 -20.7521
40 1 -3.2911 19.819 -20.3084
42 1 -2.02698 19.3907 -20.5818
48 1 -4.71379 17.8795 -21.4165
47 1 -3.86022 18.2581 -21.5927
46 1 -3.35727 17.4579 -21.6828
44 1 -1.88588 17.9261 -21.4506
43 1 -1.70599 18.8693 -21.3246
39 1 -3.81855 20.5823 -20.6914
35 1 -2.3479 20.4534 -18.023
38 1 -3.08345 20.9548 -20.2146
36 1 -1.87289 20.7917 -18.7763
37 1 -2.31302 20.8764 -19.5911
1 1 -4.27597 16.6221 -19.876
50 1 -5.00553 17.2794 -19.7023
49 1 -5.05826 17.4017 -20.6922
4 1 -4.86817 15.7049 -17.7703
29 1 -0.820143 17.7493 -16.2771
33 1 -1.63888 19.9902 -16.5045
31 1 -1.02349 18.9832 -16.1537
30 1 -0.826225 18.2691 -15.4883
32 1 -1.91435 19.2722 -15.9482
34 1 -1.87902 20.6796 -17.1947
8 1 -6.24984 16.3162 -15.9566
7 1 -6.25357 17.1549 -16.4179
6 1 -5.73576 17.1769 -17.2896
5 1 -5.60911 16.2654 -17.4523
3 1 -4.24649 16.3131 -18.3146
2 1 -3.74966 16.5002 -19.0785
26 1 0.419115 16.7523 -14.4848
28 1 -0.280431 17.0249 -15.8514
27 1 0.57337 16.959 -15.4375
10 1 -7.11077 15.6098 -15.5913
9 1 -6.64111 15.5184 -16.4483
25 1 -0.334142 17.2672 -14.1774
24 1 -0.049989 17.5244 -13.3254
11 1 -7.00401 16.2881 -14.7989
12 1 -6.17456 15.8906 -14.3129
13 1 -5.9395 15.0556 -13.8681
14 1 -5.30322 14.3761 -13.833
16 1 -4.19385 14.4481 -12.3736
18 1 -3.36115 15.9871 -12.698
17 1 -4.12297 15.3706 -12.5768
15 1 -4.44168 14.2806 -13.3501
19 1 -2.5639 15.9589 -12.2102
20 1 -2.01779 16.2928 -11.5265
23 1 -0.773025 17.9896 -12.8293
22 1 -1.31825 17.5584 -12.1657
21 1 -1.87156 16.8252 -12.3444
169 1 4.13851 7.54463 0.454615
170 1 4.44856 7.16665 -0.419621
172 1 5.20797 8.03583 -0.912148
171 1 5.21232 7.11414 -1.05572
175 1 6.58605 7.59931 0.50748
176 1 6.58391 6.76364 1.12579
173 1 5.5575 7.66018 -0.0882542
168 1 4.25779 7.4978 1.4027
167 1 3.3615 7.31234 1.40172
178 1 6.83441 5.88756 0.797963
177 1 7.38395 6.28697 1.49796
174 1 6.33089 8.07837 -0.294774
179 1 6.42061 5.16907 1.42319
180 1 6.66277 4.62978 2.25583
182 1 5.51676 4.66489 3.7288
166 1 3.55848 6.37593 1.63372
165 1 3.01362 5.67114 2.00293
164 1 3.83017 5.67448 2.62907
181 1 5.92393 4.35223 2.9054
183 1 5.68516 5.57139 4.04289
163 1 3.70879 5.23728 3.51902
162 1 3.72123 6.19292 3.54428
161 1 4.45407 6.60393 4.00345
185 1 7.2626 6.09291 3.79047
184 1 6.59082 5.44381 3.88187
186 1 8.00677 6.2085 4.45807
160 1 4.58836 7.23577 4.74723
159 1 4.8137 7.9642 5.30792
157 1 5.36536 7.12461 6.32332
156 1 4.84532 7.89902 6.44528
155 1 5.54452 8.47188 6.75353
188 1 8.7279 6.57471 5.93579
189 1 8.96883 7.41442 6.35285
187 1 8.21888 6.88064 5.13837
152 1 6.00138 9.21715 7.86884
158 1 5.40403 7.19975 5.39988
153 1 6.83958 9.32759 7.48147
154 1 6.42063 8.64107 7.06813
190 1 9.69064 7.72072 6.86264
193 1 8.97683 9.76131 8.46186
151 1 5.40399 9.63264 7.23423
191 1 8.9697 8.24758 7.15671
192 1 8.75619 9.07181 7.75107
195 1 8.76578 9.89403 9.62624
200 1 6.11089 10.2296 7.4192
199 1 6.48667 10.8125 8.10571
198 1 6.304 10.3199 8.86819
194 1 8.74124 10.5456 8.92089
197 1 7.09957 10.5479 9.3614
196 1 7.93645 10.4152 9.79785
ITEM: TIMESTEP
400000
ITEM: NUMBER OF ATOMS
100
ITEM: BOX BOUNDS ff ff ff
-5.0000000000000000e+01 5.0000000000000000e+01
-5.0000000000000000e+01 5.0000000000000000e+01
-5.0000000000000000e+01 5.0000000000000000e+01
ITEM: ATOMS id type x y z
43 1 -12.8682 16.2085 -15.3231
42 1 -13.0273 17.1429 -15.59
41 1 -12.5727 17.0411 -14.7894
40 1 -12.6303 17.9594 -14.5445
45 1 -11.9652 14.9892 -15.6121
44 1 -11.9507 15.9765 -15.6523
38 1 -11.6063 17.4968 -14.745
37 1 -10.9959 17.5611 -15.6253
36 1 -10.0936 17.9776 -15.6592
39 1 -11.8821 18.047 -14.0081
46 1 -11.7435 14.8855 -14.6219
47 1 -11.4852 15.5887 -14.0023
48 1 -10.6209 15.8317 -13.7069
35 1 -10.0458 18.5396 -14.8699
29 1 -7.97645 17.584 -14.9732
28 1 -7.06557 17.8215 -14.6873
34 1 -10.6266 18.022 -14.2556
31 1 -8.79182 17.8131 -13.7558
32 1 -9.3913 17.0212 -14.0082
30 1 -8.00486 17.3535 -14.0258
7 1 -6.16546 13.1241 -10.6185
8 1 -6.21351 14.0648 -10.3535
3 1 -8.59964 13.5669 -12.527
4 1 -7.69347 13.3986 -12.4485
49 1 -11.1115 15.3652 -12.9677
50 1 -10.8771 14.5508 -13.4214
1 1 -10.0752 14.0173 -13.0077
2 1 -9.59828 13.3231 -12.6699
26 1 -6.47375 17.0761 -13.1309
25 1 -6.86836 16.7435 -12.2822
33 1 -10.0879 17.3268 -14.6677
27 1 -6.80589 17.7235 -13.8026
9 1 -7.06356 14.4944 -10.5602
5 1 -7.11103 13.3077 -11.6604
6 1 -6.2268 13.5057 -11.4876
10 1 -7.66424 15.2486 -10.1855
22 1 -6.92735 16.7404 -10.4404
24 1 -6.73126 16.0645 -11.6335
23 1 -7.44742 16.4646 -11.1595
12 1 -7.73301 15.8849 -8.44501
11 1 -7.68069 15.3547 -9.24533
14 1 -6.75569 15.9771 -7.21876
19 1 -6.08393 16.1751 -9.05157
20 1 -6.10614 17.1234 -8.83489
21 1 -6.32319 17.2016 -9.83987
13 1 -7.31949 15.3915 -7.67896
17 1 -5.32598 15.0482 -8.43385
16 1 -5.51605 14.5999 -7.61473
15 1 -5.95675 15.4534 -7.42984
18 1 -6.21619 15.392 -8.39463
171 1 8.6287 1.63872 -1.2619
172 1 8.16503 1.90234 -2.08502
173 1 7.61738 1.6492 -1.27428
170 1 9.02424 1.18993 -2.02854
167 1 9.55907 0.66315 -1.02945
169 1 9.89758 1.33936 -2.45786
168 1 10.3141 0.898008 -1.70093
164 1 10.1132 -0.636839 0.76564
165 1 9.54278 -0.197407 0.0974282
174 1 7.1154 1.17016 -1.96396
166 1 9.23281 -0.201253 -0.817007
162 1 10.7365 -1.41831 1.99479
175 1 6.86259 0.317166 -1.74159
176 1 6.10553 0.688849 -1.27025
179 1 5.58255 1.94115 -0.693355
178 1 5.50584 1.16507 -0.205311
177 1 6.16147 0.422377 -0.299512
180 1 6.42867 2.24615 -0.434497
163 1 10.8157 -1.28125 1.01079
160 1 10.2455 0.159209 1.88986
161 1 10.8479 -0.528295 1.73764
182 1 5.35851 3.09883 -0.972782
181 1 5.66486 2.70846 -0.100973
183 1 5.08068 3.89988 -0.511622
184 1 5.95307 4.07184 -0.199438
159 1 10.1275 1.08307 2.08314
158 1 9.34979 1.2739 2.6637
157 1 8.85328 1.54758 1.91469
195 1 4.65163 6.1994 1.72533
194 1 4.25176 6.88479 2.20462
185 1 5.86141 5.02484 -0.00648492
192 1 5.22188 7.34639 1.9788
186 1 5.85955 5.39914 -0.95098
187 1 5.34745 6.20044 -1.05841
189 1 5.27698 6.70569 0.257932
188 1 5.99835 6.45373 -0.411956
198 1 5.07958 4.70051 3.59011
156 1 7.91154 1.35306 1.95257
155 1 7.3752 2.18496 1.80805
154 1 7.11214 2.49663 2.69682
196 1 4.19789 5.55225 2.26416
197 1 4.3338 5.0569 3.0943
152 1 7.01737 3.61072 2.56354
151 1 6.28805 4.25906 2.86294
153 1 7.10989 3.15736 3.40104
193 1 4.3353 7.81978 2.05609
191 1 5.6623 6.74568 1.3512
190 1 5.29129 6.01159 0.927272
199 1 5.51604 5.44083 3.17478
200 1 5.85822 5.03084 2.3929
ITEM: TIMESTEP
500000
ITEM: NUMBER OF ATOMS
100
ITEM: BOX BOUNDS ff ff ff
-5.0000000000000000e+01 5.0000000000000000e+01
-5.0000000000000000e+01 5.0000000000000000e+01
-5.0000000000000000e+01 5.0000000000000000e+01
ITEM: ATOMS id type x y z
198 1 19.0885 2.61032 -7.47229
156 1 21.1931 -0.479261 -10.0375
199 1 19.6437 3.00343 -8.18056
200 1 19.8207 2.60034 -9.02499
154 1 19.7336 -0.0656346 -11.0167
197 1 19.3928 3.10378 -6.60635
196 1 19.0902 3.75323 -5.78523
195 1 18.81 4.50878 -6.23532
194 1 18.661 4.34733 -7.141
193 1 19.4004 4.96917 -7.40571
34 1 -7.68777 13.4112 -8.67613
36 1 -8.44324 14.8777 -9.20238
155 1 20.704 -0.276548 -10.9451
158 1 22.4483 -0.700969 -10.2434
157 1 21.7519 -1.26855 -9.9497
151 1 19.4263 1.84604 -9.46965
152 1 19.1434 1.3552 -10.3352
153 1 19.6523 0.894509 -11.0513
192 1 18.7389 5.43701 -6.95597
186 1 23.1821 6.52277 -7.1091
191 1 19.1233 6.15791 -7.39037
185 1 23.5703 5.77632 -7.7472
32 1 -7.48368 12.9457 -7.5009
33 1 -7.81237 13.8291 -7.82251
30 1 -7.59716 12.3865 -5.75847
31 1 -7.77375 12.841 -6.59687
35 1 -8.39819 14.0612 -8.68513
5 1 -2.67495 13.9176 -8.12043
4 1 -2.39752 14.3919 -8.9878
39 1 -6.93915 15.0699 -10.8069
38 1 -7.1683 14.5767 -10.022
37 1 -7.46157 14.8124 -9.14489
1 1 -4.25758 14.751 -9.63188
3 1 -3.31121 14.6219 -8.8888
2 1 -4.02299 15.225 -8.83124
40 1 -7.87118 15.1416 -10.6008
41 1 -7.80919 15.9625 -11.0496
43 1 -7.06276 16.6891 -10.4744
42 1 -7.46824 16.7561 -11.3117
44 1 -6.43258 16.0253 -10.8599
50 1 -3.65455 15.3218 -10.0769
49 1 -3.48898 16.148 -10.5071
47 1 -4.54927 16.5987 -11.4565
48 1 -4.17363 16.7564 -10.5448
159 1 22.3919 -0.384648 -9.32542
160 1 21.888 -0.23913 -8.52775
161 1 20.978 -0.465333 -8.40714
162 1 20.8696 -0.180164 -7.47708
189 1 20.8303 5.96994 -7.92355
187 1 22.473 6.38475 -7.79623
183 1 23.8193 5.55417 -6.38217
184 1 24.2755 5.95541 -7.12633
190 1 20.0318 6.39477 -7.49382
188 1 21.5796 6.5305 -7.56617
182 1 24.6224 5.34467 -5.94649
20 1 -9.78851 8.51344 -7.2623
18 1 -7.91366 9.14999 -7.51314
19 1 -8.80286 8.76066 -7.43406
16 1 -8.42861 10.2336 -6.17265
28 1 -8.6312 12.6322 -4.55397
15 1 -7.54343 10.4573 -5.73309
17 1 -8.43277 9.77556 -7.02971
13 1 -6.46114 11.3931 -5.64653
14 1 -6.55785 10.4613 -5.60748
9 1 -3.71175 11.9249 -6.68827
8 1 -2.89549 12.4271 -6.64165
29 1 -7.8502 12.9696 -5.03847
7 1 -2.49131 13.3129 -6.95541
6 1 -3.14274 13.9664 -7.23336
46 1 -5.23101 16.9591 -10.8669
45 1 -5.50228 16.0415 -10.8338
167 1 21.4757 -0.194168 -4.76853
166 1 21.1294 -0.591951 -5.53333
163 1 20.2692 -0.454327 -6.83667
164 1 20.4766 0.356275 -6.33708
165 1 20.6091 0.232515 -5.39628
169 1 22.926 0.475795 -4.70231
168 1 22.3613 -0.265573 -4.37722
172 1 23.7182 0.43873 -5.80717
176 1 25.6741 1.88536 -5.25267
177 1 26.1945 2.56518 -4.84874
175 1 25.4973 0.901183 -5.17902
170 1 22.653 0.160677 -5.57827
171 1 23.0059 1.06682 -5.87924
178 1 25.8604 3.43587 -5.11692
179 1 26.1476 4.36099 -4.96199
180 1 25.4613 5.01039 -4.85112
181 1 25.124 5.845 -5.2891
21 1 -10.2831 8.82207 -6.52971
22 1 -10.2663 9.76974 -6.20878
24 1 -9.23436 10.0016 -5.13086
23 1 -9.80783 9.32484 -5.4965
25 1 -9.00941 10.7131 -4.54432
27 1 -8.33331 11.8585 -4.07221
26 1 -9.05004 11.3394 -3.83636
12 1 -5.65248 11.6395 -6.11869
11 1 -5.02093 11.814 -6.8321
10 1 -4.48869 11.5426 -6.11168
174 1 24.6999 0.99723 -4.65071
173 1 24.121 0.304113 -4.95539
ITEM: TIMESTEP
600000
ITEM: NUMBER OF ATOMS
100
ITEM: BOX BOUNDS ff ff ff
-5.0000000000000000e+01 5.0000000000000000e+01
-5.0000000000000000e+01 5.0000000000000000e+01
-5.0000000000000000e+01 5.0000000000000000e+01
ITEM: ATOMS id type x y z
198 1 16.4034 0.992147 0.588869
199 1 16.4168 1.31406 -0.304001
197 1 16.9594 0.783455 1.35605
152 1 17.3039 2.12392 0.229072
153 1 18.1159 1.95926 0.718385
196 1 16.0705 0.344613 1.54676
195 1 15.3301 -0.332864 1.51896
157 1 18.984 1.82171 3.37041
151 1 16.3529 2.39007 0.335962
200 1 15.9749 2.06681 -0.605836
154 1 18.09 1.21051 1.42907
155 1 18.6808 1.31967 2.12716
186 1 12.3992 3.27168 4.68924
193 1 15.0305 0.677805 2.97205
194 1 15.2511 -0.00193116 2.36286
158 1 19.3112 0.942866 3.816
188 1 13.3321 1.93513 4.83082
190 1 14.4551 2.39885 4.50655
189 1 14.2302 1.53387 4.86568
156 1 19.4404 1.72489 2.51986
159 1 19.2936 -0.0835417 3.89319
187 1 12.8579 2.67664 5.21556
192 1 14.1244 1.08132 3.17139
191 1 14.511 1.71376 3.83595
185 1 12.6634 4.125 4.30267
184 1 11.6827 4.14404 4.50987
182 1 11.0907 3.81482 6.23371
183 1 11.2166 4.08764 5.35673
181 1 12.0093 4.3203 6.15342
160 1 18.4884 0.199258 4.26913
161 1 17.8394 0.161792 4.95615
46 1 -2.33817 5.71818 4.64561
50 1 -3.48612 8.18335 5.10867
49 1 -3.00655 7.61248 5.84687
47 1 -1.86011 6.51 4.9718
48 1 -2.74197 6.86575 5.30208
45 1 -2.74341 4.95507 4.28327
180 1 12.8376 4.47971 5.67487
179 1 12.229 5.23992 5.60503
4 1 -4.96543 6.86964 7.00167
3 1 -5.36868 6.85746 6.08193
1 1 -4.3244 7.64925 5.11156
2 1 -4.97535 6.90898 5.15225
9 1 -6.50483 5.22732 8.15753
8 1 -5.64113 5.01475 7.84524
165 1 16.7452 1.75743 6.43106
166 1 16.6691 2.37688 7.18093
164 1 15.8725 1.17236 6.4196
167 1 15.7334 2.22662 7.01297
162 1 17.0687 0.0684185 5.63072
163 1 16.2135 0.539311 5.75535
42 1 -3.67178 3.59567 5.0918
44 1 -3.43469 4.32882 4.39362
172 1 13.5527 5.13756 7.95115
171 1 13.223 4.27543 8.2243
170 1 13.5866 3.87533 7.45443
169 1 13.9775 2.97841 7.26599
168 1 14.8862 2.57738 7.22094
43 1 -4.3697 4.00471 4.51675
176 1 11.506 4.57352 6.9725
12 1 -7.90613 3.18249 7.69959
11 1 -7.26146 3.87106 7.58524
6 1 -4.13211 5.96517 7.19189
5 1 -3.95382 6.89217 7.26015
177 1 11.7574 5.53674 7.11763
178 1 12.3521 5.76764 6.35259
13 1 -7.18584 2.73959 8.36285
10 1 -7.07337 4.75191 7.50015
7 1 -5.00199 5.59513 7.23813
38 1 -3.92768 2.96446 7.51969
40 1 -3.01327 3.50352 6.38259
41 1 -3.64362 3.08792 5.85283
39 1 -3.56372 3.77532 7.0972
173 1 12.759 5.31233 7.48919
18 1 -9.08045 1.78342 9.90983
17 1 -8.80928 1.60404 8.89844
16 1 -8.94877 2.50933 8.62612
175 1 11.5846 3.87976 7.64605
174 1 12.3071 4.50061 7.66213
15 1 -8.57627 3.40239 8.71622
14 1 -7.5903 3.39971 9.03997
35 1 -5.03605 1.42087 9.13641
36 1 -5.19086 2.17312 8.5319
37 1 -4.5834 2.35804 7.73018
19 1 -8.91517 2.67541 10.3623
20 1 -7.98116 2.4047 10.6208
21 1 -7.68143 3.30238 10.8596
30 1 -5.6666 0.854108 11.6215
33 1 -5.26473 0.254981 9.65051
34 1 -5.76613 1.13011 9.6687
28 1 -5.26212 2.17997 12.8815
29 1 -5.5851 1.58944 12.2276
27 1 -6.13834 2.40578 13.2614
26 1 -6.86666 2.56509 13.8989
23 1 -8.43661 3.82485 12.1591
22 1 -8.44537 3.87714 11.1827
31 1 -5.50002 -0.113169 11.3329
32 1 -5.7449 -0.0456879 10.4145
25 1 -7.45332 2.70502 13.1345
24 1 -7.54783 3.50083 12.4979
ITEM: TIMESTEP
700000
ITEM: NUMBER OF ATOMS
100
ITEM: BOX BOUNDS ff ff ff
-5.0000000000000000e+01 5.0000000000000000e+01
-5.0000000000000000e+01 5.0000000000000000e+01
-5.0000000000000000e+01 5.0000000000000000e+01
ITEM: ATOMS id type x y z
162 1 26.5438 0.180003 -0.562423
163 1 27.162 0.623374 -1.15411
161 1 25.8894 0.402827 -1.24345
164 1 28.0609 0.643558 -1.48566
166 1 29.1033 0.618463 -2.06938
167 1 29.521 -0.0659459 -1.50351
168 1 29.1738 0.254397 -0.659469
169 1 29.0475 1.19164 -0.88331
170 1 28.4014 1.66268 -1.38536
171 1 29.1213 2.15292 -1.74708
159 1 25.1239 1.56502 -1.90534
160 1 25.7324 1.41977 -1.13284
165 1 28.1853 0.697423 -2.4235
157 1 23.8291 2.7345 -1.20488
158 1 24.5225 2.27402 -1.86137
156 1 23.4051 2.01743 -1.70808
173 1 29.5965 3.22604 -0.843539
172 1 29.4872 2.99674 -1.78244
175 1 30.0464 5.01471 -0.914495
181 1 26.5301 5.47455 -1.14365
183 1 26.0371 6.73252 -0.418348
182 1 26.8612 6.22871 -0.658675
152 1 23.6153 3.95081 0.217621
155 1 22.7184 2.38605 -1.02833
153 1 23.102 3.45181 -0.458076
154 1 22.3752 3.29742 -1.13833
174 1 29.5374 4.17092 -1.08436
176 1 29.3462 4.92652 -0.165361
180 1 26.5981 4.85584 -1.88832
179 1 27.3624 4.74168 -1.37946
178 1 27.9828 4.2154 -0.897726
177 1 28.6058 5.00216 -0.757338
184 1 25.2418 7.21789 -0.00869898
185 1 24.7356 7.43301 0.789047
186 1 24.6123 8.31084 1.26072
187 1 25.5718 8.28572 1.17012
151 1 24.2207 4.63485 -0.185589
200 1 24.5118 5.11784 -0.899885
199 1 24.2187 5.68179 -0.243234
198 1 24.2951 6.06653 0.665335
197 1 24.8014 6.30772 1.51387
195 1 23.7376 7.10556 2.93854
189 1 26.1688 9.1135 1.78587
188 1 26.5074 8.53003 1.04769
25 1 -18.9783 12.0059 3.30722
23 1 -19.3424 12.5095 4.08745
24 1 -19.1244 11.5838 4.11044
196 1 24.3574 6.53426 2.39248
193 1 24.3422 8.55222 3.16059
194 1 24.3672 7.72544 2.60967
190 1 26.3246 9.56562 2.59775
32 1 -17.0058 9.34315 3.62748
30 1 -18.2116 10.425 2.92613
31 1 -17.3742 10.1175 3.28637
33 1 -16.009 9.1503 3.48019
34 1 -15.2411 9.11103 4.05615
36 1 -13.7418 10.2555 4.44006
29 1 -18.7884 10.2937 2.07573
28 1 -18.3059 10.4796 1.27725
27 1 -18.3135 11.3003 1.78247
26 1 -18.6916 11.9194 2.41711
22 1 -18.9093 12.5284 4.92675
21 1 -17.9644 12.5477 5.09328
192 1 25.0629 9.1879 2.95924
191 1 25.9285 8.84469 3.11374
35 1 -14.5641 9.82096 4.18153
40 1 -11.0786 9.72528 4.95013
41 1 -11.026 10.7696 5.0078
37 1 -12.8522 10.7696 4.21335
38 1 -11.9204 10.5295 3.9655
39 1 -11.9676 10.0743 4.8302
42 1 -10.6856 11.6041 5.33482
19 1 -17.9073 11.4979 6.75353
17 1 -17.1199 12.8474 6.50821
18 1 -17.4067 12.1089 7.1793
20 1 -17.7482 11.9035 5.8158
43 1 -10.5405 12.5288 5.11552
44 1 -10.7816 12.945 5.97275
47 1 -9.54607 14.2479 6.49424
46 1 -9.92469 13.6517 7.09999
48 1 -10.0025 15.0353 6.17684
45 1 -10.5206 13.7787 6.36983
16 1 -16.3121 13.0639 6.96054
15 1 -15.5315 13.0372 7.58778
14 1 -15.093 13.4747 8.32497
50 1 -11.2367 15.6976 6.15748
49 1 -10.9227 14.7871 6.02662
13 1 -15.6903 14.0216 8.93805
12 1 -16.1778 14.7592 9.22685
11 1 -16.3603 15.7048 9.30242
10 1 -16.2058 16.1865 8.47615
1 1 -11.5402 16.6686 6.34919
2 1 -11.2233 17.1979 7.06929
6 1 -13.283 15.9471 8.99725
9 1 -15.3882 16.6207 8.14185
8 1 -14.9544 15.9154 8.63165
7 1 -13.9877 16.045 8.42642
4 1 -12.0881 17.0753 8.44953
5 1 -12.8685 16.6274 8.521
3 1 -11.266 17.1176 8.01768
ITEM: TIMESTEP
800000
ITEM: NUMBER OF ATOMS
100
ITEM: BOX BOUNDS ff ff ff
-5.0000000000000000e+01 5.0000000000000000e+01
-5.0000000000000000e+01 5.0000000000000000e+01
-5.0000000000000000e+01 5.0000000000000000e+01
ITEM: ATOMS id type x y z
198 1 31.1432 4.82514 -4.96345
194 1 30.3262 5.73876 -6.31927
195 1 31.1825 5.6114 -6.07736
197 1 30.9702 4.34667 -5.76773
199 1 32.0591 5.0692 -5.13702
196 1 31.6348 4.74393 -6.30887
200 1 32.1039 6.05392 -5.15773
151 1 31.8604 6.81763 -4.56119
153 1 32.1759 7.99296 -5.89633
152 1 32.2377 7.46499 -5.15185
155 1 32.5708 8.75017 -5.11488
154 1 31.6283 8.51564 -5.30173
156 1 32.2797 9.68219 -5.1826
193 1 29.9679 4.9214 -6.09085
191 1 30.0977 4.43538 -5.14399
189 1 29.0952 3.88594 -4.6512
190 1 30.0616 3.84366 -4.39557
192 1 30.1031 5.3613 -5.2316
188 1 28.876 4.77798 -4.38677
187 1 28.579 5.50343 -3.84672
186 1 28.9339 5.92578 -3.04603
185 1 29.6684 6.15718 -3.63609
184 1 29.4848 6.85028 -3.03369
183 1 30.2486 7.07147 -3.69282
157 1 32.4575 10.618 -4.97877
158 1 31.7839 11.3113 -4.7941
159 1 30.9217 10.9971 -4.56367
160 1 30.6397 11.5895 -5.21501
161 1 30.5068 12.5237 -5.01579
162 1 30.1144 12.9316 -5.8192
165 1 32.3346 13.1522 -5.64389
163 1 31.1021 13.1096 -5.73821
164 1 31.7957 12.4068 -5.81162
166 1 32.6709 13.861 -6.1902
167 1 33.1021 13.016 -6.54466
168 1 33.0378 12.117 -6.26679
182 1 31.0755 7.46909 -4.03012
179 1 32.0731 8.77465 -3.7238
178 1 32.2042 9.69449 -3.93322
177 1 33.1163 9.74793 -3.7132
176 1 33.7758 10.2686 -3.3012
175 1 34.2357 10.638 -4.01865
174 1 34.6945 10.632 -4.97821
171 1 34.6346 11.3441 -6.68066
169 1 33.1095 11.2511 -6.73755
170 1 33.9483 10.7458 -6.80471
181 1 31.4451 8.01265 -3.30654
180 1 31.7956 8.72283 -2.77263
173 1 34.9565 11.3943 -5.48879
172 1 34.2376 11.8315 -5.93957
47 1 -16.5525 10.0981 11.7112
48 1 -16.5399 10.7335 12.4618
45 1 -16.9395 11.6867 11.7774
44 1 -17.1028 12.1422 12.5904
18 1 -14.2457 10.7794 13.2944
19 1 -13.3345 10.7524 13.2162
38 1 -17.3559 14.3803 14.7913
37 1 -16.983 14.8659 15.5221
31 1 -15.2214 16.1517 13.5006
30 1 -14.7399 16.177 12.6135
29 1 -14.9255 15.2017 12.4204
32 1 -15.9186 16.657 13.1152
9 1 -15.0412 9.90715 16.2931
8 1 -15.938 9.54007 15.9896
1 1 -15.5668 9.58586 13.2296
50 1 -16.0241 10.408 13.139
49 1 -16.9225 10.1198 13.1456
10 1 -14.3018 10.0199 15.6573
46 1 -16.4867 10.9989 11.281
12 1 -15.089 10.8134 15.0434
14 1 -14.8219 11.4676 14.1725
13 1 -14.2121 10.8369 14.6655
43 1 -17.5955 12.4534 13.3111
17 1 -14.6454 10.6559 12.3351
15 1 -15.2311 11.3288 13.3041
16 1 -14.9789 11.5195 12.3709
41 1 -17.4008 12.2038 14.6181
42 1 -17.9014 11.7455 13.9231
20 1 -12.5167 11.0995 12.8486
22 1 -12.4006 12.384 12.8387
21 1 -11.9227 11.6713 12.3239
40 1 -17.2843 13.21 14.5066
39 1 -16.6437 13.8296 15.0088
25 1 -12.5282 14.0654 12.1748
24 1 -12.8548 13.4341 12.905
23 1 -13.2473 12.5738 13.287
35 1 -16.4293 15.6688 13.961
36 1 -16.7218 15.6318 14.9872
27 1 -13.6821 15.0448 13.0489
28 1 -13.9437 15.2052 12.1524
34 1 -16.5432 15.0153 13.2679
33 1 -16.3706 15.8866 12.7857
4 1 -16.2052 7.65261 14.4762
5 1 -16.5212 7.47122 15.3739
7 1 -15.6641 8.61235 16.1537
6 1 -15.9077 7.63837 16.0911
3 1 -16.0513 8.50217 14.1138
2 1 -16.4016 9.32254 13.6902
11 1 -14.4317 11.0416 15.6808
26 1 -12.9449 14.461 12.9524
ITEM: TIMESTEP
900000
ITEM: NUMBER OF ATOMS
100
ITEM: BOX BOUNDS ff ff ff
-5.0000000000000000e+01 5.0000000000000000e+01
-5.0000000000000000e+01 5.0000000000000000e+01
-5.0000000000000000e+01 5.0000000000000000e+01
ITEM: ATOMS id type x y z
165 1 26.5553 8.42852 -8.79552
164 1 27.2046 8.36634 -9.48801
163 1 26.8294 8.03854 -10.2427
161 1 28.1076 7.06423 -10.3054
171 1 24.9091 7.49884 -5.52455
167 1 26.5952 8.12155 -7.11941
166 1 27.0484 8.13688 -7.95492
162 1 27.1356 7.12103 -10.4265
170 1 25.5108 7.97819 -6.16901
168 1 25.8292 7.55901 -7.29504
169 1 25.6839 7.08951 -6.44441
160 1 29.0152 7.11636 -10.4692
159 1 29.47 7.25728 -9.6141
158 1 29.9865 6.78698 -8.91807
157 1 30.4008 7.48029 -8.44533
175 1 23.9004 5.36785 -6.43205
172 1 24.1177 7.18127 -5.1607
174 1 23.5596 6.26553 -6.17723
173 1 24.2737 6.30633 -5.54197
155 1 30.1472 9.13008 -9.24222
156 1 30.194 8.21957 -9.17546
191 1 26.6224 7.90989 -4.93888
192 1 26.4971 8.57662 -5.64428
152 1 28.3873 10.2765 -8.45583
151 1 27.4776 10.5807 -8.24526
153 1 29.2206 9.91564 -8.25768
154 1 29.5984 9.0812 -8.46492
194 1 25.6217 9.12809 -6.42998
178 1 25.3034 6.02497 -5.58174
179 1 25.6653 5.08897 -5.5327
188 1 26.0164 8.75145 -4.43007
177 1 24.8909 5.47736 -6.24705
189 1 26.4372 9.22654 -3.75381
176 1 24.4117 4.66652 -5.95114
187 1 25.4674 8.07703 -4.02897
190 1 26.966 8.52394 -4.26562
197 1 26.7276 9.35452 -6.60777
193 1 25.5727 8.8714 -5.48138
195 1 25.2847 9.90209 -6.99685
196 1 26.1523 9.78349 -7.29561
199 1 28.3763 9.62083 -7.63053
200 1 28.04 10.4929 -7.39368
198 1 27.482 9.47321 -7.14632
182 1 27.7741 6.09163 -4.4246
180 1 26.3296 4.89168 -4.90713
181 1 26.9728 5.56024 -4.59828
184 1 26.4033 6.78368 -3.17736
183 1 26.974 6.53461 -4.07204
186 1 26.1251 7.86752 -3.29307
185 1 25.5527 7.12282 -3.49986
35 1 -18.5616 10.1039 5.58548
37 1 -18.5176 10.3734 4.20913
36 1 -17.8864 10.1181 4.91767
42 1 -19.6287 12.8665 4.34205
43 1 -19.8422 13.5233 5.06062
34 1 -17.9263 9.52291 6.03908
33 1 -16.9787 9.63686 6.13859
38 1 -18.8994 11.1846 4.40898
39 1 -19.6592 11.5334 5.05886
46 1 -18.9284 15.2856 6.10574
41 1 -18.8735 12.7523 4.89033
40 1 -18.9438 12.0621 5.59159
45 1 -19.4191 15.143 5.32066
44 1 -19.631 14.4284 4.69889
30 1 -16.4272 11.6346 5.82519
32 1 -16.5617 9.86031 5.20744
31 1 -16.3694 10.7649 5.51843
29 1 -16.4577 12.0427 4.92184
28 1 -17.2435 12.4849 4.74657
26 1 -16.0957 13.5524 5.11226
27 1 -16.9211 13.1926 5.2478
25 1 -16.2231 14.4667 5.46684
50 1 -19.7604 17.3591 7.31602
49 1 -19.5636 17.2555 6.39542
47 1 -18.8592 16.2348 6.38936
48 1 -19.8383 16.3978 6.64525
24 1 -16.0435 15.3959 5.39375
22 1 -15.1022 15.0713 6.12676
23 1 -15.6144 15.9035 6.1207
1 1 -19.5774 16.9233 8.16198
2 1 -18.9615 16.78 7.41472
21 1 -15.477 14.1659 6.11365
20 1 -15.8194 14.3002 6.99776
3 1 -18.2718 17.1357 6.88964
4 1 -17.357 17.4951 6.74743
5 1 -17.2026 18.1414 7.48789
6 1 -16.3466 17.9665 7.90228
19 1 -16.0426 15.1209 7.52049
15 1 -15.9798 14.7701 10.1445
9 1 -16.4667 17.3893 9.61175
10 1 -16.2223 17.9886 10.3958
17 1 -16.2802 16.1162 8.64242
16 1 -16.0443 15.3868 9.3819
12 1 -15.2817 17.3739 10.138
18 1 -16.4222 15.2219 8.42839
13 1 -15.2484 16.4497 10.5477
7 1 -16.9407 18.4513 8.44926
11 1 -15.6374 17.7506 11.07
8 1 -16.6401 18.2809 9.37306
14 1 -15.5712 15.5783 10.4315
ITEM: TIMESTEP
1000000
ITEM: NUMBER OF ATOMS
100
ITEM: BOX BOUNDS ff ff ff
-5.0000000000000000e+01 5.0000000000000000e+01
-5.0000000000000000e+01 5.0000000000000000e+01
-5.0000000000000000e+01 5.0000000000000000e+01
ITEM: ATOMS id type x y z
161 1 29.584 0.925129 -16.1284
160 1 30.03 0.345978 -15.5681
169 1 29.4935 4.81938 -13.4833
163 1 30.3161 1.77316 -16.0308
162 1 30.3523 1.07384 -16.6435
166 1 29.2062 3.657 -15.2958
167 1 28.4715 3.91819 -14.7134
168 1 28.7413 4.56781 -14.0563
164 1 30.042 2.69414 -16.266
165 1 29.4437 3.41359 -16.1622
157 1 30.8752 -1.37185 -14.0993
155 1 30.6052 -0.693631 -12.4548
156 1 30.9606 -1.23847 -13.1765
159 1 30.525 0.0207703 -14.7969
158 1 31.1795 -0.486008 -14.1768
170 1 29.7699 4.22486 -12.7519
172 1 28.834 3.29319 -11.2496
171 1 29.3594 3.7637 -12.0006
195 1 28.6416 -1.54147 -9.65069
154 1 29.6619 -0.799807 -12.5977
173 1 28.8891 3.81634 -10.472
175 1 30.4433 3.96602 -10.1723
174 1 29.6176 4.39991 -10.3116
193 1 28.7713 -2.886 -10.5134
194 1 28.2268 -2.11955 -10.382
196 1 28.5725 -0.560643 -9.52286
200 1 28.1463 -0.0723633 -11.9458
151 1 28.6791 -0.312823 -12.7069
198 1 28.2069 0.178974 -10.8538
197 1 27.7864 -0.316118 -10.113
153 1 29.8454 -1.07078 -13.4971
152 1 29.2256 -0.362 -13.4726
199 1 28.0652 -0.687064 -11.1782
176 1 30.3626 3.08105 -9.73131
177 1 30.1999 2.21003 -10.0264
191 1 29.9468 -3.37687 -10.6105
192 1 29.6724 -2.44617 -10.5453
190 1 29.8008 -3.58955 -9.63216
188 1 30.28 -2.38068 -8.30145
187 1 30.3196 -1.43603 -8.34745
186 1 29.5378 -1.68157 -7.7568
185 1 28.8791 -1.06329 -7.47843
179 1 30.5391 1.91532 -8.53919
178 1 30.6056 1.53026 -9.43956
189 1 29.8359 -2.74029 -9.13834
184 1 29.1792 -0.150821 -7.79858
181 1 29.1936 0.951829 -7.80952
182 1 29.4598 0.453746 -7.02382
183 1 29.9527 -0.318275 -7.24237
180 1 29.8431 1.60702 -8.01921
44 1 -16.0829 6.0946 2.66737
45 1 -15.8521 5.18727 2.30294
3 1 -19.33 5.28592 3.47625
1 1 -18.2444 3.9298 2.66622
2 1 -18.9814 4.60183 2.85279
47 1 -16.5308 3.81083 2.19335
46 1 -16.0174 4.37247 2.74842
43 1 -15.2187 6.42263 3.03454
42 1 -14.9892 7.18764 2.48193
41 1 -15.2789 8.13116 2.41291
5 1 -21.0608 5.7002 2.89004
4 1 -20.2039 5.32743 3.10763
50 1 -17.8247 3.21772 3.27737
49 1 -16.9748 3.69093 3.42218
48 1 -16.9122 3.01154 2.67102
6 1 -21.6464 6.23948 3.38051
7 1 -21.3968 7.01396 2.77068
10 1 -19.6345 7.37071 2.48697
9 1 -20.4795 7.78732 2.38643
40 1 -14.6834 9.02437 2.25049
39 1 -14.1121 9.80806 2.11934
38 1 -13.7535 10.2538 2.95379
15 1 -21.1714 8.24711 4.10536
14 1 -20.7556 8.97644 3.64079
12 1 -18.985 8.56046 3.03619
13 1 -19.8892 8.76257 3.22736
8 1 -21.2525 7.37687 1.95473
11 1 -18.8212 7.62167 2.90451
37 1 -13.9517 10.216 3.89829
16 1 -21.1326 7.66984 4.88368
17 1 -20.5912 8.31183 5.24826
18 1 -21.0448 8.61723 5.98198
36 1 -14.6119 10.7009 4.45119
33 1 -14.5219 9.4258 5.90465
35 1 -14.2281 10.3569 5.22703
34 1 -13.6755 9.62603 5.51024
19 1 -21.5596 9.41812 6.19047
30 1 -16.4306 9.66254 4.83688
31 1 -15.8525 8.98511 4.52389
32 1 -15.2532 8.98818 5.3494
20 1 -22.0821 9.45765 5.29634
21 1 -22.7866 10.0529 5.54495
22 1 -22.2727 10.8804 5.48527
26 1 -19.1606 11.0023 6.47884
27 1 -18.5831 10.2051 6.38696
29 1 -17.1739 9.60377 5.46856
28 1 -18.03 9.97511 5.728
25 1 -19.7965 11.7392 6.61103
23 1 -21.3046 11.0996 5.83234
24 1 -20.4477 11.533 5.94246
ITEM: TIMESTEP
1100000
ITEM: NUMBER OF ATOMS
100
ITEM: BOX BOUNDS ff ff ff
-5.0000000000000000e+01 5.0000000000000000e+01
-5.0000000000000000e+01 5.0000000000000000e+01
-5.0000000000000000e+01 5.0000000000000000e+01
ITEM: ATOMS id type x y z
155 1 24.0595 -7.27154 -19.9359
170 1 23.3534 -1.30745 -22.2402
169 1 23.7088 -2.06991 -21.7655
166 1 25.3373 -1.99868 -20.4266
167 1 24.6607 -2.63779 -20.6064
171 1 23.0747 -0.604736 -21.5726
168 1 23.9262 -2.83894 -21.1634
154 1 23.713 -7.40439 -19.0614
156 1 23.6759 -6.82024 -20.6002
157 1 23.0885 -6.18474 -20.2072
153 1 22.8711 -7.13414 -19.5268
164 1 26.591 -3.17422 -19.9594
165 1 26.0401 -2.35383 -19.8556
172 1 22.6498 -0.283885 -20.7594
173 1 23.3871 -0.166302 -20.211
176 1 24.2646 0.930879 -19.2018
175 1 24.3333 1.05244 -20.2053
174 1 24.1312 0.247985 -20.6419
200 1 22.9735 -5.31595 -19.4438
158 1 23.8874 -6.01422 -19.6487
159 1 24.4548 -5.95001 -20.3641
161 1 24.8691 -4.53165 -20.794
160 1 24.1082 -5.12847 -20.6994
192 1 22.8984 -3.38901 -16.7407
162 1 25.8618 -4.65581 -20.7153
152 1 22.136 -6.5268 -19.8075
151 1 22.1758 -5.74485 -19.2025
163 1 26.4986 -4.04608 -20.4135
177 1 24.3318 0.931546 -18.1968
178 1 25.1336 0.415376 -18.2274
198 1 23.3187 -5.01788 -18.399
199 1 22.8252 -4.45381 -19.0096
194 1 23.9906 -3.68694 -16.9138
193 1 23.3544 -3.4654 -17.5958
191 1 22.4236 -3.07243 -15.9096
190 1 22.8588 -3.93537 -15.672
196 1 24.4288 -4.25453 -17.9046
197 1 24.1283 -5.16372 -17.9005
195 1 24.9056 -3.83271 -17.219
182 1 26.0116 -0.19201 -17.4296
181 1 26.4624 0.0912259 -18.2848
183 1 25.5842 -1.02612 -17.1222
180 1 26.252 -0.924217 -18.218
179 1 25.445 -0.41935 -18.3311
189 1 23.2984 -3.80443 -14.8443
188 1 24.2506 -3.75452 -15.0335
185 1 25.1017 -2.39252 -16.5861
184 1 25.8716 -1.82774 -16.7014
187 1 24.7714 -3.40517 -15.8147
186 1 24.4503 -2.51689 -15.8911
31 1 -29.772 5.90914 1.02983
32 1 -29.6153 4.91116 0.946703
30 1 -29.1778 6.53159 0.580804
6 1 -30.1497 -0.878352 3.88883
5 1 -31.0697 -1.01723 4.24958
7 1 -30.8673 -0.735803 3.29669
3 1 -29.7346 -1.90831 4.8477
4 1 -30.6009 -1.4731 4.99963
2 1 -28.8244 -1.93896 4.57757
46 1 -29.1064 -0.427844 3.338
45 1 -28.5393 -0.310495 2.61998
1 1 -27.9263 -2.13808 4.60973
44 1 -28.6452 0.334427 1.93453
43 1 -29.2703 0.704888 2.55501
42 1 -29.0332 1.55408 2.99893
39 1 -30.4268 1.84153 2.04097
38 1 -30.9165 1.26721 1.47022
37 1 -30.6069 1.25327 0.543533
36 1 -30.526 2.20958 0.45871
35 1 -30.689 3.1096 0.0875184
33 1 -30.0532 4.20233 1.46082
34 1 -30.4615 3.73832 0.722439
25 1 -27.9852 6.52123 0.885739
26 1 -28.1182 5.7848 0.243715
29 1 -30.0054 6.73076 0.0463476
28 1 -29.5324 5.85761 -0.182542
8 1 -31.3764 -0.219768 2.7041
9 1 -31.5901 0.706864 2.64877
10 1 -32.204 1.1817 3.2828
47 1 -28.4498 -0.0476037 3.94896
48 1 -27.7145 -0.536544 4.15448
11 1 -32.069 1.90491 3.78629
50 1 -28.1319 -1.35549 5.20689
49 1 -27.6693 -0.432819 5.11028
41 1 -29.5024 2.19288 2.42136
13 1 -30.794 1.85377 3.84571
40 1 -29.5326 1.50908 1.79034
19 1 -30.0297 5.23716 3.45016
20 1 -30.2977 5.63859 2.50486
21 1 -29.3681 5.7282 2.43722
22 1 -29.4998 6.53795 1.89558
23 1 -28.6189 6.71801 2.26751
24 1 -28.3482 7.19863 1.50024
27 1 -28.9333 5.25427 0.111986
12 1 -31.5141 2.03481 4.53036
14 1 -31.2167 1.67335 3.04326
15 1 -31.3602 2.61793 2.86545
16 1 -30.9249 3.43642 3.02027
17 1 -31.0863 4.4065 2.83513
18 1 -30.0747 4.54525 2.80036
ITEM: TIMESTEP
1200000
ITEM: NUMBER OF ATOMS
100
ITEM: BOX BOUNDS ff ff ff
-5.0000000000000000e+01 5.0000000000000000e+01
-5.0000000000000000e+01 5.0000000000000000e+01
-5.0000000000000000e+01 5.0000000000000000e+01
ITEM: ATOMS id type x y z
185 1 17.4072 -3.62541 -29.0527
186 1 16.9677 -2.8247 -28.7705
187 1 17.4358 -2.4708 -27.9982
183 1 18.3297 -4.56894 -28.4445
180 1 18.3311 -6.21577 -27.707
184 1 18.3572 -3.78526 -28.9259
182 1 17.9647 -4.43171 -27.5818
188 1 16.8639 -2.49894 -27.1806
189 1 17.0455 -1.55083 -27.1139
191 1 17.5605 -0.910739 -26.0643
196 1 19.8662 -1.15595 -25.4836
195 1 19.3953 -1.66315 -26.1356
194 1 19.1363 -2.54352 -26.37
176 1 19.0928 -8.64325 -25.9714
178 1 18.2908 -8.05991 -27.4517
177 1 18.6521 -8.68583 -26.8226
181 1 17.8193 -5.39563 -27.3283
179 1 18.5654 -7.1058 -27.351
190 1 16.8455 -1.50653 -26.1477
199 1 21.6509 -2.01689 -23.9803
192 1 18.3104 -1.52154 -26.1549
193 1 18.5082 -2.29383 -25.6685
197 1 20.6614 -1.70411 -25.4928
198 1 21.1266 -1.59313 -24.659
175 1 19.8212 -8.08772 -25.6366
174 1 20.4648 -8.33058 -24.993
173 1 20.5728 -7.45308 -24.5463
162 1 17.6414 -2.53244 -21.6373
163 1 17.6563 -3.30078 -22.2149
200 1 21.3731 -1.65624 -23.1585
151 1 21.4387 -1.28924 -22.3141
158 1 17.7912 -1.55193 -23.9278
153 1 20.6463 -0.0792905 -22.2328
152 1 21.2401 -0.533026 -22.8888
154 1 19.6975 -0.030122 -22.1222
172 1 20.308 -6.85681 -23.9069
171 1 19.4437 -6.39009 -23.8555
166 1 19.0094 -3.85111 -23.2769
167 1 19.2224 -4.53829 -23.9432
168 1 18.6704 -5.27398 -24.2179
165 1 19.4812 -3.59809 -22.4574
164 1 18.5231 -3.63166 -22.2785
161 1 17.3762 -1.88643 -22.2811
160 1 17.9344 -2.0825 -23.0575
159 1 17.236 -2.3339 -23.7677
157 1 17.6963 -1.00173 -23.1457
156 1 17.9708 -0.0652417 -22.8897
155 1 18.8717 0.14984 -22.5986
170 1 18.6214 -6.50541 -24.3184
169 1 19.3258 -5.86984 -24.696
42 1 -30.8466 -0.56756 -7.53748
41 1 -30.4049 -0.585616 -6.68704
44 1 -29.0046 -0.771783 -7.88531
43 1 -29.8876 -0.455379 -7.75524
39 1 -29.2846 0.935214 -6.60021
40 1 -29.7606 0.105117 -6.82731
48 1 -29.1841 -2.62338 -6.61852
49 1 -28.7112 -2.26392 -5.82346
3 1 -28.7619 -3.53995 -4.74739
10 1 -27.2721 -0.559862 -4.70235
9 1 -27.3608 -1.47146 -4.71233
45 1 -28.454 -1.57509 -7.98391
46 1 -29.2682 -2.11449 -8.15759
11 1 -28.2203 -0.433986 -4.95166
13 1 -27.529 0.733069 -4.69231
12 1 -27.8214 0.306496 -5.49182
15 1 -28.0871 1.56674 -4.64867
37 1 -29.8312 2.03526 -6.52894
38 1 -28.9729 1.76657 -6.22029
4 1 -28.0949 -2.83442 -4.90374
50 1 -29.3035 -3.09387 -5.47813
1 1 -29.6278 -2.90261 -4.59537
2 1 -29.168 -3.27895 -3.83435
5 1 -27.6515 -3.46428 -4.33436
6 1 -27.2311 -3.40092 -5.20608
7 1 -26.7283 -2.76379 -5.70601
8 1 -27.0234 -2.39283 -4.78589
47 1 -29.7014 -2.59928 -7.4523
14 1 -28.4928 0.681922 -4.89722
34 1 -32.3833 2.46001 -5.2797
33 1 -32.868 2.41317 -4.4456
31 1 -33.0368 2.66861 -3.35523
30 1 -33.1096 2.20895 -2.59176
29 1 -32.307 2.40263 -2.1283
16 1 -28.9605 1.95566 -4.94505
18 1 -27.6594 2.5858 -3.94317
17 1 -28.4567 2.67634 -4.51974
36 1 -30.6214 2.29558 -6.01391
35 1 -31.4497 2.28521 -5.52074
28 1 -31.5965 2.11367 -2.73504
27 1 -30.9753 1.37173 -2.89016
32 1 -32.1789 2.57046 -3.76913
26 1 -30.2434 1.49113 -2.23898
20 1 -27.1246 1.62286 -2.83692
21 1 -27.999 1.8597 -3.15533
19 1 -27.0074 2.5722 -3.22635
25 1 -30.1708 2.4108 -1.90572
24 1 -29.3601 1.93368 -1.53585
23 1 -29.1593 1.2136 -2.12541
22 1 -28.8614 1.86516 -2.71264
ITEM: TIMESTEP
1300000
ITEM: NUMBER OF ATOMS
100
ITEM: BOX BOUNDS ff ff ff
-5.0000000000000000e+01 5.0000000000000000e+01
-5.0000000000000000e+01 5.0000000000000000e+01
-5.0000000000000000e+01 5.0000000000000000e+01
ITEM: ATOMS id type x y z
159 1 14.6002 -16.1164 -26.5404
160 1 15.1285 -15.8705 -25.7262
161 1 15.3092 -14.8985 -25.6003
162 1 14.3935 -14.8618 -25.95
158 1 14.5467 -16.7586 -27.3048
157 1 13.7131 -17.2839 -27.3544
156 1 13.9672 -17.7459 -26.5122
155 1 14.0746 -18.3097 -25.6991
200 1 13.2173 -16.3503 -25.0689
163 1 14.0968 -14.8477 -25.0067
164 1 13.8259 -14.6284 -23.983
186 1 16.8796 -13.29 -24.1141
185 1 17.2206 -13.8071 -23.375
187 1 17.0263 -12.6487 -24.822
199 1 12.4148 -16.1125 -25.5037
198 1 11.7702 -15.4829 -25.8711
197 1 12.2792 -14.7661 -26.4176
189 1 16.1672 -13.0542 -25.5253
188 1 16.693 -12.2185 -25.634
196 1 12.9226 -14.8475 -27.1483
195 1 13.2609 -13.9633 -27.3436
194 1 14.2129 -14.0845 -27.1709
193 1 15.017 -14.1012 -27.7722
192 1 15.2706 -13.2277 -27.5309
191 1 15.2396 -12.4237 -26.837
190 1 16.0788 -12.8031 -26.4661
153 1 14.9744 -17.7847 -24.7789
154 1 14.0131 -17.8673 -24.8849
152 1 14.7431 -17.1899 -25.4962
151 1 13.9465 -16.646 -25.5932
165 1 14.7466 -14.5467 -23.8093
184 1 17.6213 -12.9956 -23.0667
183 1 17.8896 -13.3968 -22.2766
167 1 14.8364 -15.6895 -23.973
166 1 15.1271 -15.0166 -24.5636
179 1 16.2547 -13.1254 -20.6192
176 1 14.448 -12.4841 -20.1201
178 1 15.501 -12.9782 -20.0155
177 1 15.2545 -12.0581 -20.3133
180 1 16.6478 -12.7038 -21.3743
181 1 16.7549 -13.2708 -22.1685
182 1 17.4048 -13.7176 -21.5406
168 1 14.694 -16.6409 -23.685
169 1 14.8369 -16.3579 -22.8029
170 1 14.7108 -15.8853 -22.0083
175 1 14.7468 -13.0398 -20.8835
174 1 13.8334 -13.2599 -20.9522
171 1 14.7039 -14.9044 -21.9086
172 1 14.826 -14.0478 -21.5357
173 1 13.8921 -13.9326 -21.5698
47 1 -27.5911 -0.795944 -3.30067
49 1 -27.9616 -1.67062 -3.78596
48 1 -28.1905 -0.750159 -4.02575
46 1 -26.7895 -0.398697 -3.76426
50 1 -27.8994 -2.49391 -4.04301
45 1 -26.0595 0.144061 -3.43296
44 1 -25.9213 0.698917 -4.13421
3 1 -29.1693 -2.90964 -2.64691
43 1 -25.253 0.860972 -4.82647
42 1 -25.6748 1.70473 -4.75227
41 1 -26.4431 1.49122 -5.24683
39 1 -27.8908 1.25031 -4.1482
40 1 -26.965 1.09864 -4.4724
1 1 -28.8368 -2.59215 -3.68988
2 1 -29.1593 -3.44579 -3.39825
5 1 -30.4675 -3.02891 -2.73909
4 1 -29.8735 -2.3004 -2.92417
38 1 -27.6595 2.10264 -3.75903
7 1 -31.5578 -2.03053 -1.89915
6 1 -30.6287 -2.41795 -1.90546
36 1 -26.6069 2.66404 -4.17299
37 1 -26.8961 2.4443 -3.28691
35 1 -25.6911 3.13122 -4.18054
23 1 -26.2164 2.7182 -1.66136
25 1 -25.5112 4.26853 -1.83163
8 1 -31.4971 -2.90566 -1.48413
9 1 -31.8109 -2.21324 -0.795174
12 1 -31.3932 -0.759969 1.47966
15 1 -30.6417 -0.487535 0.246662
16 1 -30.0852 0.276047 0.313224
32 1 -24.4894 3.18962 -3.37936
34 1 -25.1695 2.83844 -4.95241
33 1 -24.5108 3.15855 -4.31026
18 1 -28.629 0.590734 -0.470778
17 1 -29.2966 0.797671 0.184797
29 1 -24.4963 2.55843 -0.555322
31 1 -24.2777 2.77461 -2.51148
30 1 -24.6263 2.61629 -1.61579
22 1 -26.908 2.48213 -0.938444
20 1 -27.2188 0.907273 -0.915104
21 1 -27.4647 1.77902 -1.21178
28 1 -24.9899 3.35855 -0.525723
27 1 -25.8929 3.57027 -0.69332
24 1 -26.278 3.62738 -1.97078
26 1 -25.6175 4.42296 -0.885393
10 1 -31.3866 -2.04695 0.0279381
11 1 -31.2569 -1.31069 0.6203
13 1 -30.7106 -0.0176548 1.40313
14 1 -30.1124 -0.702402 1.05347
19 1 -27.6686 0.677072 -0.000170806
ITEM: TIMESTEP
1400000
ITEM: NUMBER OF ATOMS
100
ITEM: BOX BOUNDS ff ff ff
-5.0000000000000000e+01 5.0000000000000000e+01
-5.0000000000000000e+01 5.0000000000000000e+01
-5.0000000000000000e+01 5.0000000000000000e+01
ITEM: ATOMS id type x y z
189 1 22.7888 -22.527 -14.4848
187 1 22.7515 -22.7942 -16.1121
188 1 22.2529 -22.7922 -15.2712
190 1 23.2864 -23.285 -14.1154
191 1 23.65 -23.0337 -14.9851
192 1 24.0082 -22.2742 -15.4486
180 1 23.819 -18.9846 -15.356
194 1 24.7121 -21.5919 -14.1898
193 1 24.8607 -22.1009 -15.0184
186 1 22.9111 -21.8559 -15.8729
185 1 22.3071 -21.368 -16.4121
184 1 21.7837 -20.5378 -16.2601
183 1 21.9537 -19.8528 -16.8884
181 1 23.4847 -19.6754 -15.896
179 1 24.381 -18.7155 -14.5805
177 1 25.8867 -19.108 -14.2908
182 1 22.742 -19.5228 -16.4404
178 1 25.2989 -18.5293 -14.7295
195 1 24.8133 -20.9324 -13.5022
196 1 25.1352 -21.1616 -12.6302
197 1 25.0727 -22.0571 -12.5325
198 1 25.2793 -22.3075 -11.5983
174 1 26.0156 -16.9749 -12.9385
176 1 26.0683 -18.4442 -13.6163
175 1 26.0884 -17.4922 -13.8043
200 1 24.7236 -21.9777 -10.1664
199 1 24.6364 -22.6397 -10.8847
173 1 26.2295 -16.1316 -13.3602
172 1 25.3739 -15.9769 -12.9012
171 1 25.0653 -15.8363 -12.0242
170 1 25.8981 -16.3558 -11.7989
169 1 26.6932 -16.6991 -11.1918
152 1 26.198 -22.4056 -9.42484
151 1 25.2824 -22.1338 -9.41517
167 1 26.7466 -16.3655 -10.0027
168 1 27.4975 -16.629 -10.5849
153 1 25.9921 -22.9604 -8.68616
155 1 27.3922 -23.2443 -8.87148
154 1 26.5954 -23.6947 -8.6777
156 1 27.315 -22.3562 -8.50063
158 1 27.0508 -21.368 -9.47439
157 1 27.5699 -21.48 -8.69266
160 1 26.6036 -19.9149 -8.91117
162 1 25.894 -19.1603 -7.91858
163 1 26.589 -18.5503 -8.22793
161 1 25.8445 -20.0006 -8.37231
159 1 27.4041 -20.4244 -9.27835
164 1 26.6759 -17.9724 -9.04136
166 1 26.5678 -16.5529 -9.04891
165 1 27.1379 -17.2128 -8.76596
2 1 -22.375 7.16677 -8.28778
1 1 -21.8348 6.37744 -7.96271
50 1 -21.5382 5.70325 -8.5468
49 1 -21.949 5.14409 -7.87415
4 1 -22.4034 8.32482 -8.05074
47 1 -21.2324 5.77093 -6.81871
48 1 -21.0035 5.19143 -7.6122
3 1 -22.9796 7.67871 -7.80088
5 1 -22.6983 8.57875 -7.15714
6 1 -22.2341 7.78259 -6.98688
7 1 -22.9555 7.8244 -6.35319
41 1 -22.8763 3.66728 -3.11862
42 1 -22.1051 4.19243 -3.57489
37 1 -24.053 2.10123 -3.14876
39 1 -23.9534 2.66446 -2.02173
38 1 -23.271 2.28079 -2.54453
40 1 -23.5373 3.27787 -2.61218
43 1 -22.3763 5.18244 -3.61307
44 1 -22.2383 5.35375 -4.59166
46 1 -21.4348 5.28772 -5.9556
45 1 -21.4588 5.15879 -5.07182
9 1 -24.5928 8.07733 -6.45851
12 1 -25.1354 7.49613 -4.38223
13 1 -24.7179 6.69097 -4.09444
10 1 -25.4203 7.97683 -6.0507
8 1 -23.772 7.71444 -6.86755
36 1 -24.1693 1.6275 -3.9993
35 1 -24.8312 2.3271 -3.74147
17 1 -25.6859 6.16911 -2.83655
16 1 -25.4187 5.56831 -3.50838
15 1 -25.7951 5.39315 -4.35493
11 1 -25.0194 8.03294 -5.14628
14 1 -25.5731 6.34111 -4.16676
29 1 -27.9518 3.12825 -1.71739
34 1 -25.5469 1.70433 -3.74322
33 1 -25.7343 1.66746 -2.82981
26 1 -28.168 5.70059 -1.15483
25 1 -28.7678 6.02323 -1.86723
24 1 -28.0844 6.09861 -2.60429
23 1 -27.3235 5.5012 -2.45181
22 1 -26.709 4.77572 -2.22818
18 1 -25.2007 6.05558 -2.01452
19 1 -25.7085 6.8816 -1.80402
20 1 -26.29 6.04767 -1.97281
21 1 -25.908 5.16179 -1.70525
27 1 -28.5288 4.98999 -1.64108
28 1 -28.1296 4.07924 -1.58241
31 1 -26.5511 2.49857 -2.57843
30 1 -27.2796 3.15072 -2.43134
32 1 -25.7709 2.31388 -2.09915
ITEM: TIMESTEP
1500000
ITEM: NUMBER OF ATOMS
100
ITEM: BOX BOUNDS ff ff ff
-5.0000000000000000e+01 5.0000000000000000e+01
-5.0000000000000000e+01 5.0000000000000000e+01
-5.0000000000000000e+01 5.0000000000000000e+01
ITEM: ATOMS id type x y z
165 1 31.8918 -18.1078 -22.3072
166 1 32.5167 -17.4598 -22.0086
163 1 32.2644 -18.596 -20.6414
162 1 32.5984 -18.249 -19.8023
167 1 33.3051 -17.6668 -22.5338
168 1 34.1044 -18.008 -22.1308
164 1 32.009 -18.0379 -21.3586
170 1 34.0271 -19.8026 -21.3928
169 1 34.0031 -18.8787 -21.6844
171 1 34.1374 -20.1463 -20.4798
161 1 32.2174 -17.7736 -19.1083
160 1 32.8223 -18.3246 -18.5588
159 1 33.5024 -18.7105 -18.0294
174 1 35.6124 -19.4839 -21.969
172 1 34.7575 -20.7249 -21.0259
173 1 34.9347 -20.074 -21.6818
175 1 36.224 -18.78 -21.8489
156 1 34.4439 -20.1703 -19.2233
155 1 35.0654 -20.8148 -19.5636
154 1 35.8882 -20.9255 -19.1805
157 1 34.8094 -19.1791 -19.2128
158 1 34.2067 -19.234 -18.4765
178 1 37.2691 -18.7825 -21.0865
180 1 37.5098 -19.6341 -19.4806
176 1 37.0871 -18.4782 -22.1986
177 1 37.6942 -18.1532 -21.5855
181 1 38.308 -19.9936 -19.8319
153 1 36.1225 -20.6837 -18.2374
151 1 37.2826 -21.1212 -18.4013
152 1 36.5002 -21.5554 -17.9935
184 1 37.492 -18.3747 -18.3937
182 1 38.559 -19.8394 -18.8935
183 1 38.1717 -18.8913 -18.9033
179 1 37.7072 -19.1019 -20.3048
198 1 38.1907 -21.5156 -18.0556
197 1 37.4483 -21.8426 -17.5339
196 1 36.8902 -22.203 -16.704
200 1 37.71 -21.2979 -19.2225
199 1 38.411 -21.8712 -18.9646
188 1 37.2681 -20.3134 -16.6959
186 1 37.7376 -19.392 -17.1198
185 1 37.3037 -18.6636 -17.4893
195 1 37.4312 -22.9199 -16.3535
194 1 38.22 -22.3494 -16.2185
193 1 39.0183 -22.1158 -16.788
192 1 39.0007 -21.1922 -16.4837
190 1 38.2766 -20.8687 -15.7518
187 1 37.1752 -19.4264 -16.3288
191 1 38.1208 -20.9925 -16.6851
189 1 38.1624 -20.1124 -16.3702
12 1 -27.2973 -0.946956 -0.771006
6 1 -29.8605 -2.89741 -1.81588
50 1 -32.7922 0.194401 -1.9845
1 1 -32.2543 -0.317028 -2.60356
11 1 -27.8515 -1.6858 -0.814345
46 1 -32.5278 0.897621 0.293305
44 1 -33.1197 -0.116258 0.599238
45 1 -32.3184 0.262435 0.929722
7 1 -30.0033 -2.12464 -1.28259
8 1 -30.1276 -1.17278 -1.47766
9 1 -29.2199 -1.32406 -1.2844
10 1 -28.5127 -1.88472 -1.50415
14 1 -27.2697 0.238613 0.594934
13 1 -27.2001 -0.053525 -0.447088
15 1 -27.3446 1.02205 0.110151
47 1 -31.5742 0.67089 -0.0335075
48 1 -32.2197 0.412123 -0.724302
5 1 -30.3331 -3.21772 -2.60356
4 1 -30.5959 -2.30332 -2.72797
3 1 -31.5342 -1.98522 -2.47035
49 1 -31.8966 0.568424 -1.63927
2 1 -31.6203 -1.05797 -2.67511
43 1 -32.7946 -1.02251 0.493495
41 1 -32.0841 -1.69066 -0.235636
42 1 -32.6231 -1.9813 0.481297
17 1 -27.1041 2.88538 0.028057
16 1 -26.8736 1.885 -0.133168
18 1 -27.6502 3.61563 -0.327647
20 1 -27.6335 3.35983 0.973167
37 1 -31.337 -0.805938 -1.36731
40 1 -32.7652 -1.64727 -0.903096
39 1 -32.5987 -0.731467 -0.7498
38 1 -32.2515 -0.790211 -1.68489
34 1 -31.376 -1.38318 1.19257
36 1 -30.9018 -1.30835 -0.667909
35 1 -30.9586 -1.26165 0.293298
33 1 -31.8791 -1.64584 1.96061
19 1 -28.2707 3.27552 0.294154
21 1 -28.1487 4.20069 1.14005
31 1 -31.8456 -1.41751 3.07538
32 1 -32.4222 -1.00282 2.44418
30 1 -31.4028 -0.616679 2.92947
29 1 -30.6903 0.00573085 2.68769
23 1 -28.7839 2.56194 1.26808
24 1 -28.0996 2.01926 1.66161
22 1 -28.8356 3.52619 1.39214
25 1 -28.48 1.44227 1.06486
28 1 -30.0772 -0.0477103 1.92294
27 1 -30.1175 0.808899 1.47891
26 1 -29.2232 1.09142 1.58701
ITEM: TIMESTEP
1600000
ITEM: NUMBER OF ATOMS
100
ITEM: BOX BOUNDS ff ff ff
-5.0000000000000000e+01 5.0000000000000000e+01
-5.0000000000000000e+01 5.0000000000000000e+01
-5.0000000000000000e+01 5.0000000000000000e+01
ITEM: ATOMS id type x y z
176 1 38.5228 -25.0807 -32.5257
177 1 39.1658 -24.9488 -31.8214
174 1 37.4012 -24.0286 -33.1427
178 1 39.8983 -24.4204 -31.5194
179 1 40.2461 -24.0651 -30.6697
173 1 37.0078 -23.3315 -32.5884
175 1 38.267 -24.323 -33.0976
180 1 39.6003 -23.3813 -30.7309
171 1 35.6291 -22.2231 -32.1464
172 1 36.1329 -23.0048 -32.5098
184 1 40.5461 -23.4433 -29.1117
183 1 40.4008 -22.6606 -29.6894
189 1 42.6345 -20.4199 -28.3387
190 1 42.8303 -19.9293 -27.5224
191 1 42.5621 -19.0192 -27.3298
192 1 42.5437 -18.1376 -27.4003
181 1 40.4041 -22.8504 -30.7577
170 1 35.2572 -22.5293 -31.3399
169 1 35.5235 -22.1075 -30.4908
185 1 41.49 -23.2392 -29.2849
182 1 41.2236 -22.6733 -30.2295
186 1 41.7554 -22.7509 -28.4871
187 1 41.6475 -21.8221 -28.5146
188 1 42.3321 -21.221 -28.7749
193 1 42.0642 -17.781 -28.1205
194 1 42.7034 -18.235 -28.6636
168 1 35.4102 -21.4476 -29.8371
167 1 35.0325 -21.5601 -28.9308
166 1 34.1998 -21.9682 -28.6922
157 1 38.5611 -23.3107 -25.4437
196 1 41.6764 -18.7328 -28.5481
198 1 40.8436 -19.8902 -27.3834
197 1 41.3477 -19.6005 -28.1677
199 1 40.8084 -20.6408 -26.6457
195 1 41.9462 -18.0792 -29.2373
153 1 38.7049 -20.7633 -25.457
155 1 38.6778 -22.2991 -25.933
152 1 38.9795 -21.3208 -26.2466
154 1 38.4853 -21.6893 -25.2505
151 1 39.6536 -21.5725 -26.9935
200 1 40.1189 -20.8018 -27.3262
165 1 34.6658 -22.3345 -27.9246
164 1 34.9161 -23.3069 -28.1147
163 1 35.2504 -23.3016 -27.2102
162 1 35.7622 -22.7346 -26.5263
156 1 37.8786 -22.8085 -25.9684
158 1 38.1937 -24.0735 -25.9124
160 1 37.1214 -23.0838 -26.7418
159 1 37.3517 -23.9306 -26.4019
161 1 36.6268 -22.4123 -26.2829
41 1 -33.2371 7.62963 2.53204
40 1 -32.6835 6.86436 2.45708
43 1 -34.2592 6.88113 3.32249
44 1 -34.9373 7.59636 3.23612
45 1 -34.3009 8.16709 2.6898
46 1 -33.8421 8.81162 3.27878
47 1 -34.0656 9.40863 2.57132
39 1 -33.3274 6.25214 2.87326
42 1 -34.0667 7.06723 2.4109
38 1 -32.7948 5.99262 3.65548
50 1 -32.8938 11.227 2.99499
23 1 -35.0686 11.0027 4.89828
48 1 -34.5059 10.2834 2.59263
49 1 -33.7481 10.7304 2.97566
1 1 -32.1093 11.1378 3.70286
2 1 -31.2738 10.8638 3.24282
21 1 -33.7314 11.832 4.45802
22 1 -34.4503 11.2615 4.19035
20 1 -32.8122 11.5175 4.49367
37 1 -31.9156 5.62871 3.75153
36 1 -32.518 5.14095 4.32678
35 1 -33.1259 4.6982 4.96009
25 1 -36.0876 9.73428 5.69304
24 1 -35.406 10.2776 5.40365
26 1 -35.722 9.21158 6.42038
5 1 -31.5856 10.7025 5.1538
3 1 -31.301 10.4966 4.18354
4 1 -32.0171 10.0494 4.63418
18 1 -32.0476 12.4865 5.5014
17 1 -32.1591 13.417 5.29469
16 1 -31.6363 13.6125 6.11884
6 1 -31.1237 11.5838 5.01655
7 1 -30.3526 11.0795 4.73182
19 1 -32.324 11.5604 5.24718
9 1 -29.5294 10.546 5.34498
10 1 -29.4973 11.345 5.82511
8 1 -30.4897 10.5834 5.57749
33 1 -33.8963 6.18614 5.36882
32 1 -33.7845 6.43171 4.40303
34 1 -33.5057 5.31932 5.5695
31 1 -34.6085 7.08599 4.3181
30 1 -34.542 7.61131 5.10905
29 1 -35.1209 8.00652 4.45882
28 1 -35.4003 8.46113 5.3147
27 1 -34.9514 9.15411 5.75354
15 1 -30.6639 13.7199 6.22649
14 1 -30.1454 13.6337 5.45873
12 1 -29.3093 12.4933 4.57309
11 1 -29.4308 12.2891 5.53594
13 1 -29.257 13.2107 5.26158
ITEM: TIMESTEP
1700000
ITEM: NUMBER OF ATOMS
100
ITEM: BOX BOUNDS ff ff ff
-5.0000000000000000e+01 5.0000000000000000e+01
-5.0000000000000000e+01 5.0000000000000000e+01
-5.0000000000000000e+01 5.0000000000000000e+01
ITEM: ATOMS id type x y z
198 1 25.6337 -20.7278 -26.3185
200 1 24.472 -20.1675 -26.3093
151 1 25.3261 -19.7084 -26.5155
152 1 25.7327 -19.2519 -27.3397
156 1 28.1955 -17.2953 -28.1081
157 1 28.8243 -17.2828 -28.7793
158 1 29.4292 -17.7496 -28.1902
159 1 29.7548 -16.876 -28.0161
160 1 30.5326 -16.9763 -27.4959
197 1 25.2765 -21.4283 -26.7212
195 1 26.5414 -22.2183 -27.0173
194 1 27.3229 -21.8682 -27.2973
196 1 26.0233 -21.4942 -27.279
193 1 28.2798 -21.6291 -27.0757
184 1 33.7101 -21.6795 -26.6667
199 1 25.032 -20.4994 -25.5825
155 1 27.5315 -17.9235 -27.8507
187 1 32.1725 -21.7788 -26.1497
186 1 32.6275 -21.0832 -26.6254
185 1 33.4891 -20.7966 -27.0107
153 1 26.6328 -18.9292 -27.2011
154 1 27.4333 -18.4102 -27.0258
161 1 31.3259 -17.3899 -27.877
162 1 31.7763 -18.1189 -28.3608
164 1 32.546 -19.0369 -28.9116
163 1 31.7211 -18.6852 -29.1801
167 1 33.6198 -18.0537 -27.2769
166 1 32.9419 -17.6352 -27.7284
182 1 34.6011 -22.1194 -25.4124
192 1 28.95 -22.3323 -27.1217
183 1 33.8139 -21.7676 -25.723
181 1 34.9763 -22.6649 -24.659
191 1 29.8809 -22.2028 -26.8154
190 1 30.7008 -22.0104 -26.3656
189 1 31.3594 -21.264 -26.7253
188 1 31.3791 -21.3479 -25.7812
173 1 31.9244 -18.1107 -25.7268
172 1 31.8796 -17.5081 -25.0146
165 1 32.9267 -18.3633 -28.3511
170 1 32.4415 -16.3128 -26.0699
169 1 32.3748 -17.2413 -26.0807
171 1 32.4074 -16.6946 -25.1322
168 1 33.2046 -17.587 -26.4442
179 1 33.6856 -22.4519 -24.2859
180 1 34.241 -23.1774 -24.4188
177 1 32.9528 -21.1141 -24.6005
178 1 32.8505 -22.0755 -24.4913
176 1 32.3799 -20.4369 -24.9773
175 1 32.0034 -19.6202 -25.2222
174 1 31.6789 -18.7252 -25.0732
1 1 -37.0484 9.02295 1.62953
50 1 -36.2322 8.65854 2.06161
49 1 -36.279 8.6434 3.02233
48 1 -36.0823 9.60242 2.6274
7 1 -39.9434 10.4843 4.19181
5 1 -39.1996 9.54167 3.26324
6 1 -40.0136 9.54495 3.84171
4 1 -39.1876 8.96464 2.51731
2 1 -37.9821 8.83238 1.92856
3 1 -38.8535 9.15068 1.60904
8 1 -40.0186 10.9715 3.43244
9 1 -39.4901 11.4899 2.8838
35 1 -36.4503 8.3107 5.79305
36 1 -36.7218 8.7551 4.9303
46 1 -35.3986 10.7273 3.23592
45 1 -35.3682 11.4622 3.81697
11 1 -38.5856 11.9853 3.35876
12 1 -38.6066 13.0002 3.4549
14 1 -37.6164 13.0592 2.5123
15 1 -37.0407 13.8106 2.72667
16 1 -36.3067 13.7727 3.46779
47 1 -36.3639 10.4887 2.98806
13 1 -38.526 12.7233 2.53498
17 1 -35.7571 14.3798 3.86259
33 1 -35.3016 7.60439 6.42123
10 1 -38.6138 11.1105 2.85167
38 1 -37.1639 8.9028 3.94324
37 1 -37.3519 8.13472 4.54476
34 1 -35.9598 8.23592 6.6485
43 1 -36.0405 11.5935 5.62074
44 1 -35.7898 11.2378 4.69668
41 1 -36.7685 10.8282 5.09018
40 1 -36.6739 10.4781 4.15461
42 1 -36.7124 11.1487 6.03175
18 1 -36.4308 14.3291 4.62139
19 1 -36.4402 13.9125 5.50349
20 1 -35.7095 13.88 6.1378
32 1 -34.4534 7.56018 6.9544
31 1 -34.7753 8.44666 6.74049
30 1 -34.1749 8.72513 7.49018
39 1 -37.1117 9.69083 4.57077
29 1 -35.004 8.80515 7.95481
26 1 -35.7762 11.0501 8.73013
23 1 -35.7953 11.8465 7.65575
21 1 -35.1968 13.2107 6.58538
22 1 -35.7562 12.6078 7.08261
28 1 -35.6472 9.18573 8.56256
27 1 -35.959 10.0552 8.68823
25 1 -34.9041 11.3013 8.55656
24 1 -35.4698 12.1158 8.52246
ITEM: TIMESTEP
1800000
ITEM: NUMBER OF ATOMS
100
ITEM: BOX BOUNDS ff ff ff
-5.0000000000000000e+01 5.0000000000000000e+01
-5.0000000000000000e+01 5.0000000000000000e+01
-5.0000000000000000e+01 5.0000000000000000e+01
ITEM: ATOMS id type x y z
195 1 31.162 -29.6514 -42.3543
197 1 30.4931 -28.4732 -43.1712
196 1 30.5821 -28.8883 -42.3355
198 1 29.515 -28.5328 -43.2319
200 1 29.0755 -27.8653 -42.5826
199 1 29.7092 -27.5375 -43.2049
151 1 28.3687 -27.5769 -41.9576
152 1 28.7592 -26.7946 -41.6133
153 1 28.404 -25.9419 -41.8402
181 1 27.6634 -30.5236 -38.6947
182 1 27.8194 -30.3266 -37.7326
183 1 27.19 -29.6555 -37.5466
180 1 28.3258 -31.3029 -38.6002
185 1 28.5984 -29.7307 -38.7759
184 1 27.8766 -29.4243 -38.2255
192 1 32.0482 -29.7815 -40.5949
194 1 31.4153 -30.1539 -41.5298
193 1 31.6117 -30.6222 -40.742
156 1 26.4903 -27.4457 -41.7826
155 1 27.3298 -27.3652 -41.3222
154 1 27.647 -26.4795 -41.468
179 1 28.8669 -31.9083 -39.1405
186 1 29.4429 -30.2314 -38.532
178 1 28.8374 -32.891 -38.9439
187 1 29.9107 -30.7341 -39.1788
188 1 29.439 -30.0388 -39.7135
189 1 30.2812 -30.1078 -40.072
190 1 30.9565 -29.4733 -40.4073
191 1 31.6824 -28.9491 -40.1725
167 1 30.4955 -29.3763 -39.2869
159 1 26.7824 -29.2917 -41.0826
162 1 29.1793 -28.7656 -40.9136
158 1 26.3071 -28.4655 -41.0742
157 1 26.1196 -28.3513 -42.0434
160 1 27.7116 -29.6164 -41.2906
161 1 28.6665 -29.5687 -41.1219
177 1 29.3546 -33.4893 -39.3938
171 1 30.8927 -31.6425 -38.1931
175 1 29.4562 -34.0949 -38.4902
176 1 29.1635 -34.4095 -39.2949
173 1 30.1824 -33.4156 -38.1961
174 1 29.2854 -33.2087 -37.991
172 1 30.3591 -32.44 -38.0527
169 1 31.3932 -30.0158 -38.842
170 1 31.2023 -30.7221 -38.1213
168 1 31.2447 -29.0712 -38.7491
165 1 29.91 -28.1435 -39.671
164 1 30.0098 -27.5713 -40.4521
166 1 30.4103 -28.4668 -38.9733
163 1 29.0974 -27.9266 -40.4243
16 1 -38.2893 18.4707 7.28472
5 1 -39.5701 13.9662 9.73908
6 1 -38.7256 14.2394 9.79526
9 1 -39.412 16.0234 9.23175
15 1 -38.8881 19.1904 7.57963
12 1 -39.4726 17.8347 9.39286
13 1 -39.2713 18.7265 9.32036
17 1 -37.6075 18.6222 7.94677
14 1 -39.3689 19.1387 8.43954
18 1 -37.8593 18.8694 8.81865
19 1 -37.2396 18.1515 9.08981
4 1 -40.081 13.1559 10.1033
3 1 -40.7603 13.6146 9.63027
7 1 -38.9237 15.1194 10.2424
8 1 -38.7735 15.2883 9.28793
10 1 -40.0467 16.6534 8.90506
11 1 -39.6307 16.9265 9.76287
22 1 -35.7041 17.7815 11.2343
20 1 -36.7822 17.7257 9.76228
21 1 -36.47 17.598 10.6407
2 1 -40.9339 14.3005 10.208
1 1 -41.681 13.6821 10.4395
39 1 -39.7001 18.8024 12.494
38 1 -39.2534 19.0353 13.2947
37 1 -39.5756 18.8795 14.1909
36 1 -39.3097 19.8258 14.0402
23 1 -34.8173 18.0809 11.104
24 1 -34.372 18.446 11.8733
50 1 -42.347 14.341 10.7945
49 1 -41.8089 14.0783 11.5791
48 1 -41.3409 14.7017 12.0726
47 1 -41.0107 15.4339 12.6332
40 1 -39.873 18.1817 11.7336
41 1 -40.5793 18.8943 11.5856
35 1 -38.4329 19.9559 14.5042
33 1 -37.1771 19.2145 14.8723
28 1 -35.2229 19.4541 12.6688
29 1 -35.6264 18.6143 12.5169
34 1 -37.621 20.0109 14.9265
25 1 -33.4422 18.4542 11.71
27 1 -34.3177 19.0246 12.7733
26 1 -33.4042 18.7369 12.6344
32 1 -37.0845 19.4318 13.9157
30 1 -35.9609 18.9541 13.38
31 1 -36.805 18.5074 13.617
46 1 -40.0368 15.4541 12.5083
45 1 -39.7074 16.1862 12.0292
44 1 -39.8743 17.1013 12.2549
43 1 -40.3676 17.746 12.7767
42 1 -40.9063 18.1869 12.1214
ITEM: TIMESTEP
1900000
ITEM: NUMBER OF ATOMS
100
ITEM: BOX BOUNDS ff ff ff
-5.0000000000000000e+01 5.0000000000000000e+01
-5.0000000000000000e+01 5.0000000000000000e+01
-5.0000000000000000e+01 5.0000000000000000e+01
ITEM: ATOMS id type x y z
195 1 42.2826 -20.582 -26.6472
196 1 41.9122 -21.1543 -27.2837
197 1 41.9331 -21.1496 -28.3233
194 1 42.6973 -20.1851 -27.4183
152 1 39.437 -19.3487 -27.5929
153 1 38.642 -19.2871 -27.1137
151 1 39.5766 -18.9217 -28.4299
199 1 40.7201 -19.9189 -28.6218
200 1 40.4865 -19.0432 -28.3804
198 1 41.6705 -20.3094 -28.7248
193 1 42.5863 -19.2731 -27.1122
154 1 38.1473 -19.9864 -26.5645
157 1 36.0947 -19.2256 -27.1616
156 1 36.781 -19.7719 -27.5424
159 1 36.1589 -18.7183 -25.3872
191 1 42.0352 -17.7105 -26.8008
192 1 42.731 -18.2589 -26.9982
155 1 37.6215 -20.1745 -27.3866
190 1 41.4896 -18.3619 -26.3742
160 1 36.7556 -18.4892 -24.6713
161 1 36.4434 -17.5718 -24.8304
158 1 36.2188 -19.2439 -26.1834
167 1 35.3318 -16.4606 -21.5009
166 1 35.6181 -17.1122 -22.126
188 1 41.5368 -19.1768 -25.2017
164 1 35.7529 -17.6663 -22.9945
165 1 35.2564 -18.0149 -22.2987
189 1 42.1795 -18.6298 -25.7111
186 1 41.3486 -19.3216 -23.8131
162 1 36.3613 -16.7432 -24.4005
163 1 35.8932 -16.9699 -23.5934
168 1 35.695 -16.5789 -20.6385
169 1 36.4726 -16.7393 -21.1072
170 1 36.9486 -16.9965 -20.2558
177 1 39.964 -17.0182 -20.7157
187 1 40.7573 -19.3441 -24.6165
184 1 41.2783 -18.0308 -23.6805
185 1 41.8253 -18.7223 -23.2607
171 1 37.779 -17.1579 -19.8863
172 1 38.4176 -16.5666 -20.3121
174 1 38.698 -17.011 -21.5726
175 1 39.1139 -17.5962 -20.9662
179 1 41.0365 -15.7277 -20.1657
178 1 40.2104 -16.1493 -20.4264
173 1 37.8918 -16.9533 -20.9933
176 1 39.6456 -17.714 -20.1667
183 1 40.814 -17.9926 -22.7724
182 1 40.6609 -17.2534 -22.1996
180 1 41.5004 -15.959 -20.9701
181 1 41.0962 -16.4894 -21.8135
41 1 -34.9745 14.065 5.35212
43 1 -34.5541 15.666 5.93752
42 1 -34.5605 14.7111 5.87953
45 1 -34.884 15.4125 7.17929
44 1 -34.2846 16.0904 6.79087
37 1 -33.2125 13.3675 7.15532
40 1 -34.0731 14.1037 5.17329
38 1 -32.6785 13.3305 6.27164
39 1 -33.1692 13.7144 5.50342
48 1 -36.8542 16.1308 7.73379
47 1 -36.2966 15.8279 7.02844
46 1 -35.5145 16.1706 7.22338
9 1 -38.9372 18.6312 7.32979
36 1 -34.17 13.2107 6.93203
34 1 -35.6582 13.3579 6.59397
35 1 -34.8303 13.8888 6.79256
33 1 -36.067 12.4274 6.88237
7 1 -37.4723 18.3923 7.94816
50 1 -38.767 16.0128 7.52755
49 1 -37.8502 16.0937 7.78858
11 1 -39.8607 19.1409 8.055
8 1 -37.9941 18.9734 7.37756
10 1 -39.6782 19.3274 7.10902
12 1 -40.3681 19.0454 8.83687
29 1 -36.9924 13.677 9.29055
31 1 -36.4347 12.8057 8.17211
32 1 -35.7558 13.0809 7.55435
23 1 -39.2547 16.0174 10.1273
24 1 -39.8169 15.5789 10.7568
26 1 -38.4381 14.4554 10.3563
28 1 -37.916 13.9634 9.19785
27 1 -37.9523 13.7153 10.1255
25 1 -39.3528 14.7584 10.5452
5 1 -38.3617 17.3723 7.21369
3 1 -38.6987 16.8817 6.25598
4 1 -37.7771 17.2559 6.4481
2 1 -39.3091 16.7894 7.0065
1 1 -39.1413 16.8687 7.91498
13 1 -40.4886 18.4088 9.5933
14 1 -41.3967 18.2476 9.77175
6 1 -37.552 17.5018 7.64698
30 1 -37.0289 12.7812 8.98325
21 1 -40.4733 16.1536 10.2674
20 1 -41.0075 16.9028 10.5456
22 1 -39.7983 16.8321 10.3446
17 1 -42.5536 17.596 9.68489
18 1 -42.2793 16.8551 9.16041
15 1 -42.1214 18.5984 9.19723
16 1 -42.7279 18.0024 8.83109
19 1 -41.7174 16.805 9.94442
ITEM: TIMESTEP
2000000
ITEM: NUMBER OF ATOMS
100
ITEM: BOX BOUNDS ff ff ff
-5.0000000000000000e+01 5.0000000000000000e+01
-5.0000000000000000e+01 5.0000000000000000e+01
-5.0000000000000000e+01 5.0000000000000000e+01
ITEM: ATOMS id type x y z
198 1 36.6603 -19.8455 -25.9259
197 1 37.4684 -19.4252 -25.8166
168 1 37.5679 -11.6084 -27.3727
170 1 37.9297 -10.1924 -26.4078
169 1 37.6476 -11.0505 -26.6151
195 1 38.3461 -18.3663 -26.8711
194 1 39.1061 -18.0372 -27.3814
193 1 39.3793 -17.9102 -26.3344
192 1 40.1991 -18.3263 -25.9804
191 1 40.1849 -17.4004 -25.9958
200 1 36.3819 -18.6803 -25.2728
151 1 36.8182 -17.8427 -25.338
196 1 38.0794 -18.6555 -26.0033
199 1 36.0785 -19.5808 -25.2824
182 1 39.152 -14.2057 -27.304
181 1 40.0725 -14.0608 -27.0656
180 1 40.7625 -13.361 -27.1671
179 1 39.939 -13.1274 -26.6396
167 1 36.6709 -11.3057 -27.5132
166 1 36.5949 -10.9394 -26.6231
171 1 38.7313 -9.62901 -26.1104
178 1 39.7907 -12.5612 -25.8306
172 1 39.3084 -9.3109 -26.8335
173 1 38.8996 -9.77458 -27.5454
175 1 39.4457 -10.505 -26.2157
190 1 39.8726 -16.5201 -25.7487
189 1 40.7072 -16.4819 -26.3522
187 1 39.9402 -16.108 -27.7938
188 1 40.4096 -15.8584 -27.0141
152 1 36.6216 -16.9967 -25.8887
154 1 35.3037 -17.0219 -26.909
153 1 36.1978 -17.27 -26.8001
185 1 38.8594 -16.1667 -27.9442
183 1 39.0598 -15.0854 -27.7101
184 1 38.3721 -15.6254 -27.351
157 1 35.167 -15.7707 -28.1131
158 1 34.4991 -15.8522 -28.8755
160 1 34.6781 -14.0464 -29.101
163 1 34.9055 -11.8175 -28.5444
161 1 34.4158 -13.1534 -28.9359
164 1 35.479 -11.7394 -27.7484
162 1 35.2763 -12.5669 -28.949
165 1 35.8255 -11.475 -26.8788
176 1 39.3737 -11.3726 -26.5355
177 1 40.1165 -11.6917 -26.0831
174 1 39.582 -10.3519 -27.2018
186 1 39.3929 -16.6367 -27.3436
155 1 35.9472 -16.4173 -27.2821
156 1 36.1137 -15.725 -28.0235
159 1 34.3655 -14.9194 -29.2403
8 1 -42.8586 16.9843 -4.17459
9 1 -42.636 16.9006 -3.25758
7 1 -43.1026 15.9919 -4.05898
6 1 -42.6155 15.4267 -3.48303
10 1 -41.7585 16.7192 -2.93892
22 1 -36.7383 17.5434 -4.08099
20 1 -38.0862 18.5718 -4.45736
21 1 -37.2525 18.126 -4.69093
23 1 -36.0752 16.8683 -3.88442
26 1 -36.4407 16.232 -5.44261
11 1 -41.2559 17.4847 -2.58281
13 1 -41.5003 18.3783 -1.1382
25 1 -35.9206 15.9088 -4.67797
24 1 -36.6418 16.1054 -4.1307
27 1 -36.7615 16.6846 -6.19167
29 1 -35.4387 17.3356 -5.10089
28 1 -36.1647 17.2611 -5.69031
30 1 -35.2023 17.9292 -4.28637
33 1 -36.0242 18.2489 -2.56104
5 1 -41.9972 15.3227 -2.7654
2 1 -40.3386 16.0276 -0.893258
4 1 -41.76 15.4234 -1.8154
3 1 -40.8882 15.5894 -1.55986
12 1 -41.0006 17.9002 -1.76608
15 1 -40.8741 19.0585 -2.68031
14 1 -41.1494 19.0458 -1.78358
17 1 -39.5487 19.5427 -3.20874
19 1 -38.729 19.1005 -4.03674
18 1 -39.289 18.6714 -3.36374
34 1 -35.7973 17.358 -2.26951
35 1 -35.5205 16.7896 -1.52777
32 1 -35.2251 18.3125 -2.99112
31 1 -34.627 18.4297 -3.716
1 1 -41.152 15.6863 -0.512309
50 1 -41.9059 15.9525 -0.123259
49 1 -42.3152 16.1006 0.733206
48 1 -41.4279 15.7311 0.933783
47 1 -40.8031 16.2678 0.306331
46 1 -40.306 17.0628 0.653298
40 1 -37.1653 18.4808 0.208536
16 1 -40.2714 19.802 -2.59448
38 1 -36.1878 18.601 -0.423235
39 1 -37.1247 18.7166 -0.818067
36 1 -35.3205 17.6356 -1.07008
37 1 -36.2639 17.8354 -0.930558
45 1 -39.5523 16.468 0.637914
44 1 -38.7948 16.731 0.139819
42 1 -37.4865 17.5709 1.19068
43 1 -38.1316 17.2379 0.58961
41 1 -36.7493 17.7188 0.585266
ITEM: TIMESTEP
2100000
ITEM: NUMBER OF ATOMS
100
ITEM: BOX BOUNDS ff ff ff
-5.0000000000000000e+01 5.0000000000000000e+01
-5.0000000000000000e+01 5.0000000000000000e+01
-5.0000000000000000e+01 5.0000000000000000e+01
ITEM: ATOMS id type x y z
165 1 32.3389 -14.2722 -24.4137
166 1 33.0605 -13.9876 -24.9658
162 1 32.0241 -15.4025 -24.0046
163 1 31.4338 -15.1649 -24.8022
164 1 31.3775 -14.3372 -24.3562
167 1 33.1719 -13.7087 -24.039
180 1 36.0563 -18.3109 -19.7102
183 1 35.962 -20.4229 -20.2602
179 1 36.5729 -18.4543 -20.5019
178 1 35.7158 -18.6167 -20.8347
182 1 35.5238 -19.5791 -20.0044
170 1 34.7507 -15.1181 -22.9544
177 1 35.7976 -17.6838 -20.6064
176 1 35.0473 -17.3 -21.2388
161 1 31.4705 -16.1199 -23.9379
160 1 31.4397 -16.7787 -23.293
168 1 33.6597 -14.4778 -23.6893
169 1 34.6257 -14.3581 -23.5558
173 1 36.1233 -16.8935 -23.0604
175 1 35.8979 -17.4408 -21.6216
174 1 35.5687 -17.4833 -22.5378
181 1 35.1683 -18.7287 -19.6618
185 1 37.2209 -19.795 -20.5554
184 1 36.7923 -20.6195 -20.6646
159 1 31.5143 -16.3455 -22.4058
155 1 31.8415 -15.3054 -20.0945
154 1 32.6192 -15.8116 -20.3332
172 1 35.4691 -16.7269 -23.7092
171 1 34.9267 -15.9148 -23.5416
158 1 31.4612 -16.9972 -21.7288
157 1 31.1285 -16.4265 -21.0797
156 1 31.2298 -16.0211 -20.2279
186 1 37.8734 -19.7665 -19.8641
187 1 38.776 -19.4434 -19.7034
153 1 33.5153 -15.8247 -20.6572
152 1 33.8777 -14.9294 -20.4745
199 1 35.153 -15.1351 -20.3413
195 1 34.8051 -17.3531 -18.8385
200 1 34.7596 -14.3758 -20.8774
198 1 35.2967 -16.0256 -19.9529
188 1 38.9024 -18.5137 -19.5241
189 1 37.952 -18.7733 -19.3833
192 1 36.0883 -17.7481 -18.0925
151 1 33.8638 -14.0019 -20.7261
196 1 34.9183 -16.3557 -18.9392
193 1 35.4781 -18.5606 -18.1229
194 1 34.9282 -17.781 -17.9674
197 1 35.6418 -15.7531 -19.1182
190 1 37.26 -18.7129 -18.7119
191 1 36.5408 -18.6378 -18.0176
47 1 -37.0842 15.3078 -5.75992
48 1 -37.2913 14.4035 -5.59068
46 1 -36.3345 15.9864 -5.59853
49 1 -36.4678 14.0186 -5.4905
50 1 -36.3818 13.9697 -6.4639
44 1 -35.6631 16.5656 -6.52661
45 1 -35.7256 15.6116 -6.2221
1 1 -35.8222 14.5136 -7.0009
43 1 -34.9334 16.7293 -5.83454
42 1 -34.3181 15.9905 -5.93698
38 1 -34.5203 17.6716 -4.8592
39 1 -35.1203 17.1469 -4.32589
37 1 -35.2994 18.3047 -4.86182
3 1 -34.3824 13.9135 -6.63347
2 1 -34.9068 14.604 -7.11385
41 1 -34.5739 15.7999 -5.02717
33 1 -34.7723 17.7948 -2.2601
40 1 -34.8896 16.1915 -4.16455
36 1 -35.1879 19.1083 -4.30077
35 1 -34.9774 18.5165 -3.5884
5 1 -33.4227 13.0443 -5.35713
7 1 -34.8172 12.0926 -4.5711
8 1 -34.1395 12.1666 -3.94995
6 1 -34.2624 12.617 -5.15971
4 1 -33.7864 13.3241 -6.16263
32 1 -35.1669 18.3097 -1.57275
31 1 -34.3796 18.8509 -1.55056
34 1 -34.6616 18.6305 -2.69466
10 1 -33.7769 13.4273 -3.30975
11 1 -34.3168 14.2169 -3.50198
12 1 -34.6834 15.0822 -3.20687
9 1 -33.4196 12.8776 -3.98613
28 1 -36.3006 20.2649 -0.54503
29 1 -35.3665 19.9874 -0.489531
30 1 -34.6205 19.5177 -0.901553
15 1 -34.5182 15.3993 -0.777486
16 1 -33.8865 14.6577 -0.550519
14 1 -34.7146 15.133 -1.69178
25 1 -36.1665 19.0526 -0.245615
20 1 -33.6283 17.3341 1.01293
13 1 -35.1995 15.3864 -2.45077
27 1 -37.1813 19.9732 -0.490514
26 1 -37.0975 19.2006 0.0566303
24 1 -35.6471 18.233 -0.00510483
22 1 -34.2021 18.9562 0.135721
19 1 -34.2326 16.5493 0.975501
18 1 -33.4679 16.3121 0.397245
17 1 -33.7062 15.5038 0.0121806
23 1 -35.1442 19.061 0.0647148
21 1 -34.0048 18.1801 0.698009
ITEM: TIMESTEP
2200000
ITEM: NUMBER OF ATOMS
100
ITEM: BOX BOUNDS ff ff ff
-5.0000000000000000e+01 5.0000000000000000e+01
-5.0000000000000000e+01 5.0000000000000000e+01
-5.0000000000000000e+01 5.0000000000000000e+01
ITEM: ATOMS id type x y z
193 1 30.4197 -4.61808 -21.5411
177 1 35.6499 -6.94585 -22.3816
178 1 36.6256 -7.17842 -22.1871
195 1 30.411 -5.88868 -21.1986
197 1 29.1014 -5.98078 -22.1431
196 1 30.0279 -6.38218 -22.0101
180 1 36.8071 -5.97739 -22.9439
179 1 36.4895 -6.25256 -22.0555
194 1 30.9082 -5.35527 -21.8674
192 1 30.8317 -3.82597 -21.2248
191 1 31.4156 -3.95088 -22.0364
185 1 35.684 -4.42287 -21.319
158 1 28.6208 -9.4292 -22.1461
157 1 28.1249 -9.58813 -21.3601
156 1 27.398 -8.88282 -21.1969
155 1 26.6918 -9.1872 -21.7721
159 1 29.2754 -10.0703 -22.0852
166 1 31.4434 -7.739 -20.0324
153 1 27.1126 -8.20632 -23.381
154 1 26.9306 -8.67856 -22.5575
198 1 28.2644 -6.45889 -22.0353
173 1 32.5857 -7.43255 -21.8181
174 1 33.2839 -8.12799 -21.9084
175 1 33.9885 -7.6874 -22.443
176 1 34.7478 -7.14885 -22.1573
199 1 28.364 -6.54324 -22.9803
188 1 33.5547 -4.56072 -21.3093
189 1 33.1449 -3.88655 -21.9237
187 1 34.1222 -4.53503 -22.1172
190 1 32.2603 -3.91554 -22.424
186 1 34.7725 -4.04 -21.5507
184 1 36.4867 -3.96087 -21.0647
183 1 36.9322 -4.15231 -21.9295
181 1 37.312 -5.3856 -22.334
182 1 36.8045 -5.07836 -21.5746
160 1 29.9306 -9.37497 -21.8923
161 1 29.6296 -8.47434 -22.1409
162 1 29.8733 -8.26766 -21.2367
165 1 31.3357 -7.08619 -20.7112
164 1 31.0181 -8.00831 -21.1273
151 1 26.5247 -6.94474 -22.7149
163 1 30.4337 -8.24911 -20.3531
167 1 31.9183 -7.85284 -19.2218
168 1 32.2115 -8.76618 -19.3037
172 1 32.4225 -7.98504 -21.0707
169 1 31.6904 -8.7529 -20.1436
171 1 32.5538 -8.83736 -21.4092
152 1 26.241 -7.67971 -23.344
200 1 27.4601 -6.8501 -23.0679
170 1 32.5624 -9.10522 -20.4823
19 1 -38.4155 5.23039 -0.370553
20 1 -38.3073 6.20549 -0.116922
5 1 -41.1479 11.3078 2.0875
6 1 -40.5584 11.2925 1.33163
15 1 -39.8522 6.99246 1.16017
16 1 -39.0264 6.53188 1.10163
17 1 -39.4571 5.9722 0.433727
18 1 -39.2532 5.6045 -0.434161
8 1 -39.6419 10.5399 2.23977
22 1 -36.8537 6.45012 0.144234
23 1 -37.2841 7.28491 0.450435
21 1 -37.5701 6.74427 -0.492114
7 1 -40.4867 10.4644 1.81704
24 1 -37.0986 8.20354 0.56067
25 1 -37.7377 7.99938 1.26549
26 1 -37.1648 8.70234 1.62057
27 1 -37.1673 9.64156 1.50513
3 1 -42.6348 12.4782 2.29195
4 1 -42.0448 11.7512 2.22414
28 1 -37.8101 10.3727 1.60004
13 1 -40.1388 8.17532 2.01203
11 1 -39.0894 8.63589 1.82517
14 1 -39.5804 7.40195 2.02475
12 1 -39.5672 8.62684 2.6234
10 1 -39.8314 9.06987 1.38447
9 1 -39.2656 9.74948 1.74683
1 1 -41.5291 13.3646 1.99197
2 1 -42.0008 12.9522 2.80953
29 1 -37.674 10.6225 2.45844
48 1 -42.1159 15.0891 2.2268
33 1 -36.8134 13.1785 1.26786
47 1 -41.2755 15.4439 2.42995
46 1 -41.1121 15.0868 3.30318
30 1 -38.2494 11.3522 2.33791
32 1 -37.647 12.6247 1.33128
31 1 -37.9191 11.702 1.48225
49 1 -42.1512 14.7419 3.14332
50 1 -41.7401 13.9999 2.69058
34 1 -36.8391 14.1214 1.59282
44 1 -42.0987 15.2259 4.69704
45 1 -41.7727 15.5535 3.85057
38 1 -38.6465 14.4491 4.27847
35 1 -37.348 13.976 2.43383
36 1 -37.6657 14.3044 3.28177
37 1 -37.9903 13.7307 3.97287
39 1 -39.1912 14.5705 5.02789
43 1 -41.4976 14.5379 4.99016
42 1 -41.3247 13.7398 5.55915
40 1 -40.1618 14.5565 5.30862
41 1 -40.4242 13.6728 5.1946
ITEM: TIMESTEP
2300000
ITEM: NUMBER OF ATOMS
100
ITEM: BOX BOUNDS ff ff ff
-5.0000000000000000e+01 5.0000000000000000e+01
-5.0000000000000000e+01 5.0000000000000000e+01
-5.0000000000000000e+01 5.0000000000000000e+01
ITEM: ATOMS id type x y z
170 1 32.2813 -1.76429 -28.1498
171 1 31.9243 -0.921585 -28.3771
169 1 31.3745 -2.11197 -27.8853
168 1 30.8132 -2.15877 -27.0782
172 1 31.0134 -0.479558 -28.3773
167 1 31.2209 -1.87226 -26.2381
166 1 31.642 -1.44507 -25.5045
165 1 32.0106 -2.14873 -24.9477
174 1 30.5677 0.520866 -27.1769
173 1 30.4588 -0.449693 -27.5476
175 1 30.3724 0.562929 -26.2075
164 1 32.7787 -1.65715 -25.1339
163 1 33.662 -1.53757 -25.5616
178 1 29.7129 0.470309 -24.2284
162 1 34.2136 -1.56041 -24.752
177 1 29.7751 -0.0650118 -25.0641
176 1 30.6272 -0.0497521 -25.5925
161 1 35.0732 -1.64985 -25.1272
159 1 34.7484 -1.05361 -23.7858
179 1 29.1721 -0.172483 -23.8609
181 1 28.1386 -0.196298 -22.6394
180 1 28.3349 -0.538672 -23.5491
160 1 35.0258 -1.91295 -24.2036
155 1 33.6679 0.752534 -23.6743
158 1 35.2887 -0.552961 -23.1122
182 1 28.7322 0.44875 -23.1154
157 1 34.3418 -0.257525 -23.0072
156 1 34.3618 0.173385 -23.9516
183 1 29.3199 0.863032 -22.4697
184 1 29.5961 1.72548 -22.0788
153 1 34.4968 1.56466 -22.3632
154 1 34.356 1.3482 -23.2694
187 1 28.7251 1.5704 -20.9798
185 1 29.356 2.56526 -21.8994
186 1 29.3289 2.32672 -20.9778
198 1 33.059 4.21859 -19.7476
152 1 34.1771 2.17532 -21.6157
151 1 34.3135 3.13156 -21.2715
200 1 34.5003 3.92484 -20.7718
196 1 32.6978 3.78949 -21.2727
199 1 33.8962 3.90914 -20.0798
197 1 32.9207 3.43945 -20.3881
189 1 28.9683 2.15315 -19.6957
188 1 28.5622 1.36201 -20.103
191 1 29.582 3.77716 -19.766
190 1 29.0121 3.0431 -20.0276
194 1 31.1616 3.38074 -20.8477
193 1 30.7651 3.51846 -19.9731
195 1 31.9477 3.87732 -20.7217
192 1 30.1221 3.89261 -20.5713
5 1 -46.2796 6.96681 -1.56619
4 1 -46.5322 6.6043 -0.741433
6 1 -45.7634 6.97565 -2.44011
7 1 -46.4733 7.6224 -2.55701
8 1 -46.9159 8.08596 -1.84057
1 1 -47.3645 6.24847 0.333299
3 1 -46.6586 5.65456 -0.486678
2 1 -46.465 5.92529 0.431152
9 1 -46.0039 8.26352 -1.4137
10 1 -45.8374 8.93763 -0.756622
12 1 -45.5497 9.36963 -2.25645
11 1 -45.3144 9.42289 -1.31539
43 1 -48.1952 10.2102 -1.07093
38 1 -45.7641 12.4918 0.00452349
37 1 -44.9695 12.4554 0.605447
50 1 -47.4755 7.13297 0.50427
49 1 -47.5621 8.05723 0.43645
13 1 -45.0067 9.66142 -2.99659
14 1 -44.1415 9.23143 -2.63201
45 1 -47.7437 9.32954 -1.35926
44 1 -48.3567 9.83982 -1.91218
16 1 -42.5865 8.37326 -2.92506
15 1 -43.357 8.91212 -3.10715
17 1 -41.999 8.00468 -2.22378
18 1 -41.1043 8.259 -2.30232
42 1 -47.5749 10.8214 -0.894368
41 1 -46.8389 11.4075 -0.629428
39 1 -45.9972 11.6134 0.315098
36 1 -44.7492 12.7613 -0.284031
40 1 -45.8406 11.3441 -0.555732
35 1 -44.2982 12.7132 -1.14601
48 1 -47.4356 8.23475 -0.488064
46 1 -47.3294 9.66805 -0.582393
47 1 -46.8332 8.99879 -0.112478
31 1 -42.6109 10.4291 0.236718
29 1 -42.5719 9.95086 -1.53794
30 1 -42.2585 10.1381 -0.613406
21 1 -40.0446 8.31546 -0.0343768
20 1 -40.2564 8.07495 -0.943013
32 1 -42.7336 11.371 -0.0201379
19 1 -40.8932 8.55378 -1.42575
34 1 -43.3883 12.4455 -1.27404
33 1 -43.1661 11.6523 -0.814701
23 1 -40.029 10.039 -0.665755
22 1 -40.1059 9.12291 -0.557405
24 1 -40.0304 10.1579 0.3435
28 1 -42.0182 10.768 -1.54165
27 1 -41.9048 11.181 -0.65509
25 1 -40.7022 10.7172 0.00613874
26 1 -40.9873 10.8228 -0.93802
ITEM: TIMESTEP
2400000
ITEM: NUMBER OF ATOMS
100
ITEM: BOX BOUNDS ff ff ff
-5.0000000000000000e+01 5.0000000000000000e+01
-5.0000000000000000e+01 5.0000000000000000e+01
-5.0000000000000000e+01 5.0000000000000000e+01
ITEM: ATOMS id type x y z
176 1 22.6413 -3.54816 -16.8277
175 1 22.8985 -2.61786 -16.5402
174 1 22.5124 -2.08267 -15.8648
181 1 23.7955 -2.13931 -18.4649
180 1 24.0139 -2.85821 -17.8734
182 1 24.3267 -1.73228 -17.8095
183 1 24.6611 -0.836299 -17.7695
178 1 24.3563 -4.28095 -16.9017
177 1 23.4728 -3.83485 -17.2518
179 1 24.3765 -3.27401 -17.0985
184 1 24.7481 -0.369034 -18.5548
191 1 27.6656 -2.38057 -15.7689
193 1 28.3717 -3.90405 -16.3934
173 1 22.5668 -1.24544 -16.4113
189 1 27.0892 -2.24647 -17.0153
190 1 26.8049 -2.05467 -16.0675
192 1 28.1922 -3.01224 -16.3153
171 1 22.1256 -0.544877 -17.3168
172 1 22.7289 -1.24618 -17.3893
168 1 22.9683 -0.177556 -16.7566
188 1 26.2614 -1.70269 -16.9118
185 1 25.5658 -0.236098 -17.9701
186 1 26.0648 -0.65675 -17.3255
169 1 22.1281 -0.0757461 -16.3868
195 1 28.8532 -5.04896 -15.8327
194 1 28.2061 -4.81925 -16.4881
187 1 26.7007 -0.910177 -16.6342
165 1 23.8704 -0.777289 -14.8011
170 1 21.4185 0.0878618 -17.1082
167 1 23.1924 0.427102 -16.0721
166 1 23.2029 -0.233959 -15.2917
196 1 29.4153 -4.94472 -15.0715
198 1 28.9122 -3.15355 -14.6294
199 1 28.5136 -2.39907 -14.1614
197 1 29.1654 -3.9817 -14.8731
200 1 28.8749 -1.56046 -13.966
163 1 24.1331 0.244828 -13.1335
164 1 23.8338 -0.454299 -13.8625
153 1 28.5322 -2.00007 -12.1669
152 1 28.7059 -1.41753 -12.939
151 1 28.3287 -0.855698 -13.6722
155 1 28.9429 -3.56374 -12.5918
154 1 29.0362 -2.63734 -12.7147
162 1 24.8059 -0.46323 -12.9926
157 1 27.2099 -3.29793 -13.4266
156 1 28.0052 -3.45559 -12.8744
161 1 25.0391 -0.749324 -13.8908
160 1 24.9474 -1.69486 -13.6912
159 1 25.8121 -2.08977 -13.8431
158 1 26.4445 -2.75972 -13.6728
42 1 -40.804 11.4943 -5.29757
24 1 -46.6524 12.8945 -4.66863
43 1 -41.6443 11.8084 -5.61632
44 1 -42.5436 11.5691 -5.53744
23 1 -46.4245 12.5846 -3.75762
32 1 -42.679 10.0266 -2.84455
38 1 -42.2913 9.5398 -6.18751
40 1 -40.8008 10.4044 -5.37878
39 1 -41.457 9.81311 -5.82282
26 1 -45.2731 12.269 -5.53178
27 1 -44.2229 12.3273 -5.51067
25 1 -45.728 12.8365 -4.94296
41 1 -41.1902 10.9471 -4.67001
21 1 -45.1007 13.5561 -3.04584
22 1 -45.6141 12.769 -3.34948
45 1 -42.4999 12.3377 -4.88185
47 1 -41.8496 14.0695 -4.61312
46 1 -42.1299 13.229 -5.004
48 1 -41.0178 14.0775 -4.15635
49 1 -40.8659 14.0177 -3.21991
34 1 -43.4538 9.67436 -4.60925
35 1 -42.7782 10.0331 -5.28188
33 1 -43.1626 9.73338 -3.7156
30 1 -43.246 11.5315 -3.78746
31 1 -43.0173 10.8881 -3.08471
37 1 -43.1193 9.9725 -6.43334
36 1 -42.5852 10.6384 -6.02413
28 1 -43.9873 12.0275 -4.62918
29 1 -44.0193 12.1101 -3.69103
20 1 -44.3296 13.6025 -2.47517
19 1 -44.2791 12.679 -2.16986
50 1 -40.0057 14.5506 -3.27726
1 1 -39.9685 15.3362 -2.73352
2 1 -40.0792 15.5653 -1.82284
3 1 -41.057 15.6557 -1.80483
16 1 -42.4949 11.4641 -1.93456
18 1 -43.4687 12.6895 -2.72094
17 1 -43.0743 12.1476 -1.9978
15 1 -41.8668 12.1447 -2.199
14 1 -41.6671 12.0124 -1.25771
6 1 -42.4418 14.5854 -1.91362
12 1 -41.6858 13.4193 0.099976
13 1 -41.5216 12.659 -0.499711
5 1 -42.5699 15.5344 -2.19294
4 1 -41.8871 16.0405 -1.71895
11 1 -40.7555 13.2829 -0.0432648
10 1 -41.043 13.6616 -0.979945
8 1 -41.3775 14.3197 -2.17555
7 1 -41.6712 14.631 -1.24867
9 1 -40.8625 13.553 -1.91189
ITEM: TIMESTEP
2500000
ITEM: NUMBER OF ATOMS
100
ITEM: BOX BOUNDS ff ff ff
-5.0000000000000000e+01 5.0000000000000000e+01
-5.0000000000000000e+01 5.0000000000000000e+01
-5.0000000000000000e+01 5.0000000000000000e+01
ITEM: ATOMS id type x y z
189 1 25.5294 -8.01899 -33.1361
190 1 25.7563 -7.58821 -33.952
194 1 23.8519 -7.26615 -31.7631
185 1 25.531 -10.1424 -32.2128
187 1 26.1733 -8.91571 -33.3437
186 1 26.0972 -9.44323 -32.5468
188 1 26.2361 -8.30258 -32.5267
191 1 25.5592 -6.71288 -33.6524
192 1 24.8252 -6.96121 -33.1763
195 1 24.3329 -6.49149 -31.3912
193 1 24.0024 -6.95019 -32.6256
196 1 24.0104 -6.73694 -30.526
183 1 27.4602 -10.1796 -31.7754
184 1 26.4664 -10.0969 -31.8416
182 1 28.3674 -10.4804 -31.6808
197 1 24.9259 -6.38776 -30.2618
200 1 24.4043 -5.21619 -28.5173
198 1 25.4712 -5.67101 -29.9649
151 1 24.5917 -5.55042 -27.565
181 1 28.8928 -10.196 -30.849
180 1 29.1942 -10.7753 -30.1432
179 1 28.8956 -11.1076 -29.2768
199 1 24.9228 -5.61287 -29.1983
153 1 23.8908 -7.10314 -27.091
156 1 24.3201 -8.77294 -26.4803
157 1 24.5681 -9.21872 -27.2687
158 1 23.8281 -9.80083 -27.0785
152 1 24.0521 -6.17363 -27.0412
155 1 23.8754 -7.98226 -26.0567
170 1 27.4662 -13.416 -27.7868
171 1 28.0017 -12.6735 -27.4264
172 1 28.7346 -12.4967 -26.8131
173 1 28.4072 -11.6289 -26.4694
165 1 24.5921 -11.7534 -27.3598
166 1 24.843 -12.4087 -26.653
174 1 27.627 -11.2885 -26.0505
164 1 24.4221 -12.2943 -28.1727
163 1 23.5211 -12.6287 -28.3947
162 1 22.6858 -12.2092 -27.9289
161 1 22.51 -11.6802 -27.142
178 1 28.3178 -10.9949 -28.4896
177 1 27.5102 -10.9893 -27.8624
160 1 23.0956 -11.3218 -26.4744
159 1 23.729 -10.6142 -26.4608
154 1 24.2791 -7.95567 -26.9883
168 1 26.2063 -13.3603 -26.4134
169 1 26.6559 -13.5322 -27.2485
167 1 25.5527 -13.0257 -27.0891
175 1 27.1171 -10.9429 -26.8425
176 1 27.445 -10.198 -27.3013
47 1 -42.5771 23.3864 -8.39096
49 1 -41.5966 24.0921 -9.09309
48 1 -41.5255 23.4167 -8.4321
46 1 -42.2539 22.8252 -9.12959
45 1 -43.0947 22.526 -8.71194
50 1 -41.7613 25.051 -9.34256
40 1 -43.5714 23.2299 -7.79198
1 1 -42.6306 24.6493 -9.47928
2 1 -43.5687 24.5027 -9.71722
3 1 -44.0036 24.6504 -8.89552
4 1 -43.6108 25.513 -8.85535
44 1 -43.8307 22.304 -9.24585
43 1 -44.7581 22.2124 -9.00063
41 1 -44.1613 23.356 -8.47118
42 1 -44.8537 23.155 -9.16139
39 1 -43.1448 22.838 -7.07556
38 1 -42.9411 22.2055 -6.28444
37 1 -42.901 23.0591 -5.91001
6 1 -43.5845 27.0619 -8.22192
5 1 -43.2329 26.4357 -8.87701
14 1 -43.7546 26.9967 -5.16433
35 1 -42.5817 24.5773 -5.19615
36 1 -42.3255 23.7352 -5.69022
8 1 -42.9907 26.2529 -7.09498
13 1 -43.0643 26.316 -5.01775
12 1 -42.1662 26.3916 -5.32989
9 1 -42.3218 26.485 -6.47636
7 1 -43.8439 26.4156 -7.51197
30 1 -41.7613 22.4737 -2.76617
29 1 -42.4658 22.1384 -2.34405
17 1 -44.6025 28.2458 -3.83746
31 1 -41.743 23.2101 -3.34302
32 1 -41.5368 24.1069 -3.58765
33 1 -41.2315 24.5305 -4.43759
15 1 -44.0795 27.8267 -4.80864
16 1 -44.816 27.4253 -4.37318
34 1 -42.1724 24.2078 -4.38846
11 1 -41.5581 25.5631 -5.43207
10 1 -42.1716 25.5285 -6.19639
28 1 -43.0629 22.8474 -2.11729
27 1 -43.3947 22.6429 -3.00143
23 1 -44.1814 24.853 -2.54062
18 1 -44.092 27.5647 -3.33403
19 1 -43.383 26.8959 -3.08176
21 1 -43.0159 25.5561 -2.97988
22 1 -43.7321 25.6706 -2.32235
20 1 -43.5419 25.9883 -3.59415
24 1 -45.0041 24.3318 -2.52567
26 1 -44.3726 22.7042 -3.05594
25 1 -44.8478 23.4101 -2.51677
ITEM: TIMESTEP
2600000
ITEM: NUMBER OF ATOMS
100
ITEM: BOX BOUNDS ff ff ff
-5.0000000000000000e+01 5.0000000000000000e+01
-5.0000000000000000e+01 5.0000000000000000e+01
-5.0000000000000000e+01 5.0000000000000000e+01
ITEM: ATOMS id type x y z
166 1 29.0047 -13.5256 -31.5517
169 1 30.7528 -12.7989 -31.527
168 1 29.8741 -13.1867 -31.8259
162 1 27.6653 -15.6728 -30.0478
164 1 28.8105 -14.3706 -30.0488
163 1 28.5112 -15.2668 -30.2142
165 1 28.4497 -14.0158 -30.8692
167 1 29.756 -13.5936 -30.9663
199 1 23.3633 -11.8389 -29.908
198 1 24.3003 -11.7436 -30.1942
197 1 25.2148 -12.0443 -30.3867
171 1 30.4685 -11.8807 -30.7227
172 1 31.1372 -11.3815 -30.1848
170 1 31.3198 -12.1796 -30.9413
173 1 31.29 -10.584 -29.7481
160 1 26.4092 -16.9212 -29.4656
159 1 25.8207 -16.1971 -29.5618
161 1 26.9616 -16.1716 -29.51
156 1 24.9088 -14.7056 -28.8628
158 1 25.9613 -15.2769 -29.219
157 1 25.7491 -14.8078 -28.4301
152 1 23.437 -12.8755 -28.1366
154 1 24.4414 -13.8938 -28.2707
196 1 25.2156 -12.5754 -29.5445
193 1 27.1606 -12.7954 -29.4482
192 1 28.0688 -13.0347 -29.2829
191 1 28.9705 -12.8097 -29.0131
200 1 22.9739 -11.7327 -28.9936
195 1 25.8135 -12.3307 -28.7972
194 1 26.5462 -12.015 -29.2783
190 1 28.837 -11.8874 -28.7627
189 1 28.5529 -11.6756 -29.6822
188 1 29.1951 -10.9217 -29.5363
187 1 28.811 -10.279 -28.9265
186 1 29.6842 -9.98961 -28.5314
175 1 31.9522 -10.2113 -28.9189
174 1 31.2523 -9.74558 -29.2681
176 1 32.8551 -10.4567 -28.9236
155 1 24.6534 -14.722 -27.9095
153 1 23.7053 -13.59 -27.5618
151 1 23.0433 -12.0262 -28.0691
182 1 31.0863 -11.2801 -26.7321
185 1 30.4195 -10.4272 -28.0605
184 1 30.6756 -10.1924 -27.1744
177 1 33.238 -10.7955 -28.0982
179 1 33.3598 -10.3275 -26.7129
178 1 32.9584 -10.1032 -27.5397
181 1 31.863 -10.9391 -26.2365
180 1 32.7966 -11.0371 -26.48
183 1 30.508 -10.6081 -26.3446
24 1 -46.3898 32.3923 -6.36885
26 1 -47.4591 33.717 -6.39392
27 1 -48.1157 34.3106 -5.97269
25 1 -46.7208 33.2127 -5.96664
23 1 -45.5962 32.9228 -6.10508
22 1 -45.513 33.3652 -5.28557
28 1 -48.3871 34.6496 -5.07598
39 1 -48.6081 29.2456 -4.28431
41 1 -47.4588 28.2724 -4.4512
40 1 -47.7059 29.1601 -4.52356
42 1 -46.8266 28.2347 -3.6889
45 1 -45.7255 28.8543 -3.76965
46 1 -44.7825 28.9636 -4.11381
47 1 -44.3029 28.9241 -3.29881
38 1 -48.8262 29.9988 -3.73294
50 1 -43.8245 30.3517 -3.15082
33 1 -48.5834 32.0275 -3.13407
12 1 -44.5151 32.4223 -3.40726
10 1 -43.0339 32.5744 -3.86685
32 1 -48.9818 32.918 -3.31322
31 1 -49.0765 33.8959 -3.27975
29 1 -48.3054 34.3256 -4.17068
21 1 -45.1931 33.1227 -4.43645
19 1 -44.0313 34.3649 -3.75506
20 1 -44.7687 34.0255 -4.29948
9 1 -43.3028 33.521 -4.11396
8 1 -43.4172 33.4097 -3.18637
30 1 -49.2965 34.4207 -4.08337
18 1 -44.6736 34.7765 -3.14514
43 1 -46.8748 28.1969 -2.76759
44 1 -46.0921 28.7898 -2.86907
48 1 -45.0397 29.4461 -2.92088
37 1 -48.3548 30.0688 -2.88834
36 1 -48.2398 30.8967 -2.48705
49 1 -44.4652 30.0928 -2.47716
1 1 -43.0669 30.3258 -2.58048
2 1 -42.9848 30.885 -1.8345
35 1 -47.7378 31.5913 -1.94165
34 1 -47.7143 31.9053 -2.87636
11 1 -43.5934 32.2562 -3.09624
14 1 -45.4215 33.0605 -2.21117
15 1 -46.0304 33.5374 -2.77003
16 1 -45.9605 34.3147 -2.16004
13 1 -45.0723 33.1431 -3.07775
6 1 -43.0419 32.8784 -1.72165
7 1 -42.7306 33.0441 -2.60727
17 1 -45.1777 34.8823 -2.37672
3 1 -42.4235 31.0705 -1.11268
5 1 -42.7325 32.3713 -0.947875
4 1 -42.742 31.6011 -0.396434
ITEM: TIMESTEP
2700000
ITEM: NUMBER OF ATOMS
100
ITEM: BOX BOUNDS ff ff ff
-5.0000000000000000e+01 5.0000000000000000e+01
-5.0000000000000000e+01 5.0000000000000000e+01
-5.0000000000000000e+01 5.0000000000000000e+01
ITEM: ATOMS id type x y z
154 1 37.5575 -13.9733 -14.6436
159 1 36.0787 -14.4035 -12.1769
158 1 36.1453 -14.5026 -13.1654
157 1 37.0511 -14.4607 -13.3124
156 1 37.1921 -13.584 -13.5129
155 1 36.6906 -13.6892 -14.3422
152 1 37.1027 -12.4889 -14.8122
151 1 36.666 -12.3458 -15.6356
200 1 36.5021 -11.4492 -15.4416
153 1 37.6584 -13.0754 -14.2891
195 1 33.7975 -9.59597 -13.9016
162 1 36.1453 -12.0937 -12.3273
160 1 35.9793 -13.6738 -12.7109
161 1 36.5353 -12.9235 -12.6565
194 1 33.0647 -9.27565 -14.396
196 1 34.2203 -10.476 -13.7107
197 1 35.0155 -10.7706 -14.1158
198 1 34.7559 -10.7822 -15.0367
199 1 35.769 -10.8791 -15.0311
163 1 36.8805 -12.1715 -11.6409
192 1 32.0092 -10.4238 -13.5368
193 1 32.2514 -9.81915 -14.2087
191 1 31.3464 -10.7986 -12.9905
190 1 32.2526 -10.4972 -12.5688
167 1 37.8502 -12.8644 -8.74547
164 1 36.8873 -12.1582 -10.6888
169 1 37.5756 -12.3034 -7.51748
165 1 36.6626 -12.877 -10.0606
166 1 37.4336 -12.8641 -9.5945
170 1 37.5296 -11.6847 -8.20472
189 1 31.6366 -10.4363 -11.7531
187 1 30.5908 -10.5617 -10.2691
188 1 30.8971 -10.2259 -11.1322
168 1 37.1127 -12.9094 -8.03122
172 1 37.3043 -10.4482 -8.1223
173 1 36.3838 -10.7674 -7.7662
171 1 37.1405 -11.0288 -8.85519
174 1 35.9828 -11.6287 -7.54405
186 1 30.5847 -11.5222 -9.87708
185 1 31.1442 -11.4201 -9.04266
176 1 34.6865 -12.7087 -7.8309
175 1 35.0902 -11.8265 -7.8207
184 1 30.9966 -11.3189 -8.11326
183 1 30.558 -11.4341 -7.23782
182 1 31.5234 -11.4146 -7.16814
181 1 31.9887 -12.2346 -7.01961
180 1 31.8143 -12.7409 -7.85085
177 1 33.9738 -13.3563 -7.94016
179 1 32.5992 -13.0285 -8.21872
178 1 33.2189 -13.7972 -8.20462
42 1 -33.6776 41.0711 -0.693045
43 1 -34.1283 41.8441 -0.98431
41 1 -33.5506 40.1311 -0.71699
45 1 -35.6226 41.9473 -1.4367
44 1 -34.98 41.8955 -0.697223
47 1 -36.0876 41.7639 -2.81481
40 1 -33.2816 39.3647 -0.278569
38 1 -33.8769 38.3503 -0.75826
39 1 -34.2317 39.1105 -0.300026
50 1 -37.8523 41.0441 -2.3767
48 1 -36.9345 41.6031 -2.40524
49 1 -37.819 41.8059 -2.93553
46 1 -35.6138 41.3209 -2.12508
1 1 -37.4122 40.7615 -1.48402
5 1 -40.3123 40.3835 -1.08405
36 1 -32.4156 37.8314 0.123109
37 1 -33.1003 37.7881 -0.565302
35 1 -32.2336 38.3345 0.959644
4 1 -39.4555 40.2134 -0.767117
3 1 -38.6274 40.4263 -0.527013
2 1 -38.0992 40.1554 -1.27474
9 1 -41.2547 39.1171 0.643168
7 1 -41.5525 40.5503 -0.336531
8 1 -41.1929 39.9943 0.272088
30 1 -32.7797 41.2903 2.32263
34 1 -31.3503 38.5646 1.45521
33 1 -31.8425 39.3563 1.78118
6 1 -41.2025 40.528 -1.29662
11 1 -40.8904 37.8613 1.98152
10 1 -41.2875 38.622 1.52885
31 1 -32.9736 40.3929 2.00055
28 1 -34.1867 40.421 2.78158
32 1 -32.7606 39.4425 1.92444
29 1 -33.5244 41.121 2.80999
13 1 -39.1706 38.3231 2.16193
12 1 -40.1189 38.2184 2.48329
14 1 -38.7239 38.9168 2.73549
15 1 -38.8045 39.8047 3.07635
16 1 -37.812 39.8834 3.17572
22 1 -35.1048 40.3309 5.57914
24 1 -34.2822 40.1189 4.20867
23 1 -34.5581 39.8035 5.05746
26 1 -35.2383 41.1935 3.43572
25 1 -35.0779 40.6587 4.26235
27 1 -35.1292 40.6178 2.74966
17 1 -37.0194 39.3426 3.24715
18 1 -36.7751 39.1532 4.18723
20 1 -36.7456 39.2831 5.68417
21 1 -36.0023 39.8787 5.63399
19 1 -37.3409 39.2511 4.95062
ITEM: TIMESTEP
2800000
ITEM: NUMBER OF ATOMS
100
ITEM: BOX BOUNDS ff ff ff
-5.0000000000000000e+01 5.0000000000000000e+01
-5.0000000000000000e+01 5.0000000000000000e+01
-5.0000000000000000e+01 5.0000000000000000e+01
ITEM: ATOMS id type x y z
153 1 39.1292 -10.8092 -20.9182
152 1 38.499 -10.6657 -20.1882
163 1 40.545 -11.3591 -20.3559
168 1 42.549 -10.4625 -19.6461
167 1 42.3007 -10.53 -18.5651
154 1 39.7137 -10.2283 -21.4536
156 1 39.588 -9.29346 -20.6742
151 1 38.6592 -10.2206 -19.3503
200 1 38.6697 -11.0785 -18.8505
162 1 41.0627 -10.7206 -20.8785
161 1 41.2418 -9.87025 -20.2725
164 1 40.4639 -11.7389 -19.4661
165 1 41.2213 -11.5543 -18.8922
166 1 42.1914 -11.462 -18.7713
170 1 42.1795 -9.18863 -19.1724
155 1 39.0591 -9.53197 -21.4638
157 1 39.5813 -9.44924 -19.7065
158 1 40.0045 -9.59323 -18.7654
159 1 40.9336 -9.65482 -18.5018
160 1 41.1029 -9.38465 -19.3699
169 1 41.7877 -10.0364 -19.3092
171 1 42.0821 -8.37918 -18.7631
174 1 41.7559 -6.77675 -18.9969
175 1 41.2248 -6.34207 -18.3763
176 1 40.6899 -7.12318 -18.5304
198 1 36.8439 -10.769 -19.4186
199 1 37.7614 -11.0467 -19.2288
172 1 42.0573 -7.66386 -19.389
183 1 40.2659 -5.81625 -17.6285
182 1 40.0184 -6.49186 -18.2195
181 1 39.1765 -6.10821 -17.9734
180 1 39.101 -7.02891 -17.9307
178 1 39.3995 -8.03354 -18.1121
179 1 39.1305 -7.67094 -17.226
177 1 40.2604 -7.97316 -18.525
173 1 41.3486 -7.14478 -19.8536
197 1 36.508 -10.3002 -18.5524
196 1 37.3862 -10.0689 -18.2697
195 1 36.8752 -9.40286 -17.8504
192 1 35.7899 -7.30072 -17.2154
185 1 39.9171 -5.08808 -15.9871
184 1 40.1566 -5.10108 -16.9407
194 1 37.1664 -8.43345 -17.6304
193 1 36.4897 -7.73858 -17.7644
191 1 36.6124 -7.06126 -16.8551
190 1 36.9552 -6.64465 -16.0567
188 1 38.2392 -7.17465 -15.7164
186 1 39.0588 -5.62732 -15.8588
187 1 38.8181 -6.50138 -16.1557
189 1 37.7219 -6.40614 -15.564
34 1 -37.9711 33.1832 -5.65084
33 1 -37.4512 33.8867 -5.90417
32 1 -36.9853 33.2554 -6.55137
31 1 -36.528 34.025 -6.88204
30 1 -35.8826 34.7148 -6.69651
29 1 -35.3766 35.2157 -5.96084
35 1 -38.5337 32.415 -5.48282
28 1 -35.4218 35.8603 -5.23765
26 1 -36.8553 35.4245 -4.89998
27 1 -35.9814 35.1573 -4.9714
36 1 -38.8285 32.9249 -4.78746
38 1 -40.3238 33.0844 -4.00673
37 1 -39.7788 32.6985 -4.72988
39 1 -40.0555 33.9519 -4.32286
23 1 -38.6496 37.2014 -5.21079
24 1 -37.9035 36.8538 -5.68134
25 1 -37.2079 36.2374 -5.27388
41 1 -38.3188 34.3356 -3.65215
40 1 -39.1378 34.2007 -4.1062
42 1 -38.672 34.9429 -2.95949
8 1 -34.1479 36.2487 -2.1322
44 1 -37.2176 34.3041 -2.09942
20 1 -38.487 36.6701 -4.39104
21 1 -39.4008 36.8732 -4.13256
22 1 -39.0959 37.7335 -4.56596
18 1 -37.1656 36.7299 -3.23901
19 1 -37.9077 37.0267 -3.8004
12 1 -33.6308 37.8492 -3.59578
11 1 -33.0363 37.2884 -3.15779
17 1 -36.2269 36.9601 -3.24495
43 1 -37.7879 34.9798 -2.51311
6 1 -33.7942 36.5415 -1.12418
7 1 -34.2911 37.1165 -1.7174
46 1 -36.7817 34.0929 -1.06042
47 1 -36.3909 34.8699 -1.42933
45 1 -36.786 33.4401 -1.76683
3 1 -36.1868 35.4504 -0.110687
4 1 -35.2909 35.8421 -0.175953
5 1 -34.6258 36.2863 -0.740762
9 1 -33.2393 36.2832 -2.49286
48 1 -36.9316 35.6336 -1.71625
1 1 -36.5932 36.641 -0.400227
15 1 -34.8574 36.6655 -4.28617
14 1 -34.4422 37.5064 -4.66811
16 1 -35.346 37.207 -3.60984
13 1 -33.5293 37.5587 -4.50769
10 1 -32.8115 36.3726 -3.3345
2 1 -36.371 36.1868 0.425014
49 1 -37.6927 35.9939 -1.22679
50 1 -37.5135 36.4972 -0.452365
ITEM: TIMESTEP
2900000
ITEM: NUMBER OF ATOMS
100
ITEM: BOX BOUNDS ff ff ff
-5.0000000000000000e+01 5.0000000000000000e+01
-5.0000000000000000e+01 5.0000000000000000e+01
-5.0000000000000000e+01 5.0000000000000000e+01
ITEM: ATOMS id type x y z
170 1 44.2079 -6.8411 -32.9162
173 1 44.173 -6.37058 -34.8308
171 1 44.4215 -6.75358 -33.8044
172 1 44.9726 -6.82716 -34.6179
174 1 44.2131 -5.47605 -34.382
175 1 44.4097 -4.54256 -34.661
178 1 45.7624 -4.65831 -36.1059
179 1 45.3801 -3.86645 -35.6811
180 1 45.0876 -3.03858 -35.3298
169 1 44.3368 -6.05746 -32.3719
168 1 45.1084 -6.52068 -32.0056
167 1 46.0373 -6.1221 -32.0932
165 1 47.6582 -5.60269 -31.2758
166 1 46.9676 -5.98499 -31.8494
176 1 44.4742 -4.70036 -35.6155
183 1 45.6655 -3.27001 -33.406
177 1 44.9321 -5.24195 -36.2269
185 1 46.3605 -3.59648 -31.6286
186 1 45.8523 -2.94619 -31.1472
181 1 45.3567 -3.12848 -34.3561
182 1 45.1483 -3.9477 -33.8305
187 1 44.9532 -2.66211 -30.8221
188 1 45.1673 -1.79972 -30.4267
164 1 48.3929 -5.10239 -30.9216
163 1 48.4406 -5.99901 -30.6474
162 1 48.0034 -6.46492 -29.9585
184 1 45.881 -3.38353 -32.4368
190 1 46.7015 -1.12306 -29.5925
192 1 46.3894 -1.16946 -28.1265
191 1 47.1252 -1.25234 -28.6892
189 1 45.8169 -1.42003 -29.8952
193 1 45.442 -1.13986 -28.0354
161 1 47.0504 -6.27377 -29.8998
160 1 46.4825 -5.79623 -29.1218
159 1 45.7509 -6.29265 -28.7382
151 1 44.6681 -5.22255 -29.9525
152 1 44.1967 -4.3973 -30.177
153 1 43.6989 -3.59764 -29.9229
200 1 43.8125 -5.39073 -29.4187
199 1 43.7933 -5.05301 -28.5708
194 1 44.8025 -1.53364 -27.4856
156 1 46.0467 -4.34148 -30.1349
155 1 45.5906 -3.47408 -29.7873
157 1 45.4944 -4.71536 -29.3321
158 1 45.1723 -5.53841 -28.9012
154 1 44.6521 -3.49983 -29.9918
198 1 43.641 -4.0516 -28.5564
196 1 44.1702 -2.50342 -28.8609
197 1 43.8046 -3.19617 -28.1934
195 1 44.6247 -2.39329 -28.0344
45 1 -32.2655 39.4352 -8.50024
42 1 -31.4882 39.7573 -9.61924
41 1 -30.7376 40.0169 -9.10205
40 1 -29.8719 39.6056 -8.81599
46 1 -31.4243 39.6867 -8.22368
47 1 -30.7471 38.9591 -8.26816
49 1 -30.0915 37.713 -7.34009
4 1 -27.2332 38.7362 -6.83325
3 1 -28.1261 38.553 -7.12731
44 1 -32.2124 40.3529 -8.6142
43 1 -32.3647 40.0697 -9.48724
48 1 -30.5208 38.0579 -8.12018
39 1 -29.6947 39.6164 -9.74039
38 1 -28.7927 39.7831 -9.48533
5 1 -26.7142 38.6557 -7.62659
6 1 -27.2171 39.1517 -8.29296
37 1 -29.0425 40.1641 -8.59351
50 1 -30.1632 38.4814 -6.80584
2 1 -28.6209 39.1314 -6.57084
1 1 -29.3975 38.934 -7.16228
34 1 -29.1759 41.5812 -10.5265
32 1 -29.9201 42.439 -10.0894
36 1 -28.7928 40.9287 -9.08889
35 1 -29.4448 41.4534 -9.57917
7 1 -26.5262 39.7577 -8.7427
8 1 -25.8819 40.407 -8.5704
30 1 -29.6932 42.9212 -8.7725
31 1 -30.3294 42.4183 -9.18025
27 1 -30.7805 43.935 -6.97166
28 1 -30.8097 43.8533 -7.89453
33 1 -29.301 42.5016 -10.7405
9 1 -25.809 40.8915 -9.41649
10 1 -26.0912 41.7621 -9.12744
12 1 -26.1628 41.5276 -7.37256
11 1 -26.2692 41.9764 -8.20362
29 1 -30.4076 43.6103 -8.73762
25 1 -29.643 45.2028 -6.2537
24 1 -29.8416 45.5799 -5.3271
14 1 -27.8947 42.4441 -7.21729
15 1 -28.2647 42.3629 -6.3468
26 1 -29.9752 44.5512 -6.8863
13 1 -27.0783 41.855 -7.208
18 1 -30.0137 42.969 -6.08392
16 1 -28.701 43.2418 -6.34853
17 1 -29.3713 42.5291 -6.68434
23 1 -28.9583 45.5539 -5.00877
22 1 -28.9591 44.6278 -5.51295
20 1 -29.7955 43.6984 -5.30299
21 1 -29.1437 44.0659 -4.75799
19 1 -30.5684 43.7331 -5.85955
ITEM: TIMESTEP
3000000
ITEM: NUMBER OF ATOMS
100
ITEM: BOX BOUNDS ff ff ff
-5.0000000000000000e+01 5.0000000000000000e+01
-5.0000000000000000e+01 5.0000000000000000e+01
-5.0000000000000000e+01 5.0000000000000000e+01
ITEM: ATOMS id type x y z
162 1 33.1622 -12.1812 -36.2689
160 1 32.2817 -11.1173 -37.1598
161 1 32.6381 -12.0453 -37.0795
159 1 32.1083 -10.214 -36.9601
155 1 34.241 -8.32995 -36.0039
164 1 33.6192 -11.8091 -35.1311
165 1 34.276 -11.9073 -35.8256
163 1 32.9229 -12.4718 -35.3611
158 1 32.9365 -9.91915 -36.4755
166 1 34.0758 -10.9536 -35.6964
156 1 33.307 -8.55216 -35.8117
157 1 32.5724 -9.0842 -36.2836
153 1 34.8829 -8.30245 -37.0039
154 1 34.6451 -7.54245 -36.4278
152 1 35.0217 -8.67125 -37.928
151 1 35.9204 -8.41044 -37.7326
199 1 37.0459 -7.39221 -36.5148
198 1 36.5119 -8.07657 -36.0164
197 1 36.1123 -8.7006 -35.4327
200 1 36.6265 -8.06757 -37.1742
167 1 34.1299 -10.005 -35.7349
195 1 36.0697 -8.68356 -33.7066
175 1 37.9678 -8.01671 -34.1812
194 1 36.8026 -8.50474 -33.1125
196 1 36.2997 -9.04908 -34.5624
168 1 34.8326 -9.31692 -35.4648
169 1 35.4705 -9.88229 -35.8863
170 1 36.3129 -10.3849 -36.0002
173 1 38.1471 -9.89289 -34.1569
171 1 36.6002 -9.90612 -35.197
193 1 36.9582 -7.99831 -32.3097
192 1 36.9488 -8.8074 -31.756
172 1 37.3057 -9.87413 -34.5777
174 1 38.1637 -8.91932 -34.0213
176 1 37.1868 -8.30096 -34.7744
177 1 36.4373 -7.79472 -34.9743
180 1 36.8043 -6.56433 -33.622
178 1 36.748 -6.96225 -34.6005
179 1 37.5497 -6.52511 -34.2447
190 1 36.3961 -9.88033 -31.2813
191 1 36.044 -8.99934 -31.5897
182 1 37.3212 -5.98895 -32.2626
181 1 37.0257 -5.67653 -33.1615
189 1 36.3321 -9.29762 -30.5153
184 1 36.7443 -6.69622 -31.3905
183 1 36.7258 -5.7026 -31.5986
188 1 36.5419 -8.38265 -30.5319
187 1 37.0864 -7.6984 -30.1882
186 1 37.7721 -7.14547 -30.5991
185 1 37.4227 -7.36087 -31.4418
37 1 -26.5158 39.8938 2.38098
40 1 -26.4294 37.5786 1.36804
39 1 -26.6357 38.4979 1.28987
34 1 -26.9381 40.0282 4.50123
41 1 -25.7579 37.035 0.975605
42 1 -25.4775 37.9654 1.11277
35 1 -27.0721 40.6048 3.80114
36 1 -27.1273 40.4661 2.85252
38 1 -26.4624 39.4988 1.46058
43 1 -24.5682 38.1267 1.49313
44 1 -24.1647 38.4466 2.30493
46 1 -24.1334 39.5532 2.57963
48 1 -22.9333 40.1434 3.6967
47 1 -23.4357 39.4565 3.28679
50 1 -21.9414 40.9728 3.88523
49 1 -22.3381 40.2654 4.38348
32 1 -26.306 40.9665 5.8995
31 1 -26.6573 40.2114 6.35266
33 1 -26.278 40.3873 5.13588
45 1 -23.6093 39.0851 1.84639
22 1 -23.6016 41.5487 6.86312
1 1 -21.6658 41.5787 4.62204
2 1 -21.3905 41.8308 5.49692
30 1 -26.8464 40.4416 7.21376
29 1 -26.9525 39.5702 7.51404
28 1 -26.1005 39.2262 7.60307
27 1 -25.5621 40.1022 7.84472
26 1 -24.8911 40.3086 7.26582
25 1 -24.4004 39.5174 6.91122
24 1 -23.9593 40.0325 6.21597
23 1 -24.1228 40.931 6.36188
4 1 -19.9057 42.4119 6.0807
5 1 -19.9964 41.7089 6.7846
6 1 -20.8648 42.1845 6.9553
8 1 -21.4449 43.8481 7.57528
7 1 -21.3608 42.9718 7.08567
20 1 -24.2816 42.095 6.11717
19 1 -24.9086 42.3666 5.44541
21 1 -24.2845 42.2223 7.08744
16 1 -23.5839 44.4144 6.17049
3 1 -20.6113 41.7586 5.98421
9 1 -20.5812 44.2578 7.29121
17 1 -24.4446 44.0648 6.01945
14 1 -22.3583 45.5491 6.23141
15 1 -23.1146 45.0745 5.77747
13 1 -22.3066 46.1914 6.97905
11 1 -21.8627 45.3415 7.41503
10 1 -21.213 44.7977 7.82759
18 1 -24.393 43.1416 5.68491
12 1 -21.4916 46.2803 7.54668
ITEM: TIMESTEP
3100000
ITEM: NUMBER OF ATOMS
100
ITEM: BOX BOUNDS ff ff ff
-5.0000000000000000e+01 5.0000000000000000e+01
-5.0000000000000000e+01 5.0000000000000000e+01
-5.0000000000000000e+01 5.0000000000000000e+01
ITEM: ATOMS id type x y z
200 1 38.4828 -26.0034 -37.0819
162 1 43.2926 -26.6479 -34.0259
153 1 40.51 -25.6176 -37.1966
163 1 43.3521 -26.272 -34.8779
195 1 36.5343 -26.3405 -35.256
198 1 37.4741 -25.8127 -36.6471
199 1 38.0603 -25.167 -37.0902
151 1 39.1849 -25.4393 -36.9263
152 1 39.7534 -26.0989 -37.3137
197 1 37.5475 -26.6973 -36.173
196 1 36.8728 -27.1786 -35.6243
164 1 44.2938 -26.231 -34.8211
187 1 36.7493 -26.5717 -33.2701
188 1 37.1882 -25.7956 -33.6248
189 1 36.5516 -25.2128 -33.2673
156 1 41.3183 -25.6262 -35.1446
157 1 41.4522 -26.5426 -34.652
158 1 41.1795 -25.8703 -33.9905
159 1 40.9514 -26.3174 -33.1578
160 1 41.8587 -25.9576 -33.0022
161 1 42.5005 -26.5473 -33.4574
191 1 36.1338 -24.2308 -34.7139
192 1 36.9435 -24.5348 -35.1018
190 1 36.4482 -24.953 -34.1936
193 1 37.5308 -24.8678 -35.8667
154 1 40.8709 -24.8731 -36.7423
194 1 36.6982 -25.5074 -35.8005
180 1 39.2342 -26.771 -33.2872
183 1 38.2596 -28.5411 -32.9778
178 1 39.117 -25.3041 -33.1676
165 1 44.975 -26.7483 -34.3982
186 1 37.5458 -27.1051 -33.5278
184 1 37.2617 -28.4853 -32.8079
185 1 37.6344 -27.6371 -32.7953
155 1 41.4886 -25.1222 -36.0223
166 1 44.9725 -27.6262 -33.8595
167 1 44.1844 -27.4695 -33.144
181 1 39.3414 -27.6045 -33.7836
177 1 39.694 -25.7449 -32.5241
182 1 38.9934 -28.5033 -33.5322
179 1 38.8974 -25.9767 -33.7777
176 1 40.6559 -25.9212 -32.2366
175 1 40.3374 -26.2779 -31.4456
172 1 42.0319 -27.4027 -29.8962
171 1 42.5416 -27.0574 -30.6239
168 1 43.5942 -27.5541 -32.4537
170 1 42.7537 -27.2456 -31.6017
169 1 43.3873 -26.7076 -32.0855
174 1 41.0181 -26.7913 -30.9245
173 1 41.1431 -27.1594 -29.9882
22 1 -16.0525 39.8001 -6.30138
14 1 -18.2733 41.2971 -11.8167
9 1 -15.1813 41.4702 -11.9885
10 1 -15.9708 41.9269 -12.3176
13 1 -17.4953 41.9314 -11.7627
12 1 -16.8675 41.727 -11.0525
11 1 -16.2475 42.3152 -11.5324
19 1 -17.3169 39.1045 -8.17861
20 1 -16.4256 39.0558 -7.71243
21 1 -16.5206 39.0936 -6.7588
17 1 -17.744 39.8382 -9.82253
18 1 -17.259 39.3995 -9.10457
16 1 -18.1108 40.2757 -10.588
24 1 -15.9026 40.7644 -6.54451
23 1 -16.7737 40.3554 -6.39589
25 1 -15.9036 40.6477 -7.53057
15 1 -17.8856 41.252 -10.8843
8 1 -14.2437 41.7879 -11.6241
6 1 -14.5305 42.9479 -10.7162
7 1 -13.9841 42.1828 -10.678
26 1 -15.7216 40.3882 -8.42434
27 1 -16.2728 40.7219 -9.13161
31 1 -15.8712 41.9309 -8.5534
3 1 -13.8447 44.8359 -9.08582
5 1 -14.4748 43.926 -10.5448
4 1 -13.9333 44.6709 -10.0353
30 1 -16.609 41.7845 -9.21203
29 1 -15.983 42.193 -9.74189
28 1 -15.6305 41.2637 -9.57476
32 1 -15.6346 42.4883 -7.79685
33 1 -14.7703 42.0791 -7.36996
2 1 -14.1523 45.4106 -8.41004
50 1 -13.5813 45.5665 -7.16816
1 1 -13.8065 44.7929 -7.69078
47 1 -12.0018 46.3009 -5.99396
48 1 -12.777 45.7541 -5.72781
49 1 -13.2426 45.1955 -6.32612
34 1 -14.103 42.7266 -7.6148
35 1 -13.253 43.1785 -7.53079
36 1 -12.5151 43.7731 -7.35674
37 1 -11.8939 44.4426 -7.67277
42 1 -9.75541 44.7148 -5.82086
41 1 -9.26025 44.345 -6.59017
45 1 -11.8525 45.6712 -4.65074
43 1 -10.207 44.8148 -5.00677
46 1 -11.5574 46.4328 -5.19635
44 1 -11.059 45.141 -4.82835
38 1 -11.1255 44.7806 -7.21662
39 1 -10.4652 44.0465 -7.20187
40 1 -9.5902 44.3556 -7.50229
ITEM: TIMESTEP
3200000
ITEM: NUMBER OF ATOMS
100
ITEM: BOX BOUNDS ff ff ff
-5.0000000000000000e+01 5.0000000000000000e+01
-5.0000000000000000e+01 5.0000000000000000e+01
-5.0000000000000000e+01 5.0000000000000000e+01
ITEM: ATOMS id type x y z
159 1 42.5708 -32.1496 -38.0248
158 1 42.1025 -32.8268 -37.4835
155 1 41.2827 -33.653 -36.2422
154 1 41.0741 -32.7642 -36.3695
163 1 39.8901 -33.8234 -38.7971
162 1 40.7464 -33.2958 -39.0797
161 1 41.6505 -33.5206 -38.8687
160 1 42.2059 -32.6797 -38.7427
157 1 42.5715 -33.5135 -37.1496
156 1 42.2765 -33.8955 -36.3101
168 1 36.5728 -33.892 -39.2209
169 1 36.1299 -34.8219 -39.0498
167 1 37.1032 -33.1774 -38.7567
166 1 37.7596 -32.5852 -38.9416
165 1 38.6762 -32.6588 -39.2163
164 1 39.0799 -33.5439 -39.1737
195 1 40.2727 -36.4761 -36.0048
151 1 39.89 -34.97 -36.9764
197 1 39.8188 -36.7859 -37.6395
196 1 39.6063 -36.5603 -36.7418
198 1 40.5892 -36.6694 -38.3023
199 1 40.394 -35.8489 -37.7705
200 1 39.7134 -35.0955 -37.955
152 1 39.7469 -34.1553 -36.3226
153 1 40.3597 -33.4119 -36.3786
173 1 35.1187 -34.2674 -37.4761
172 1 34.974 -35.1916 -37.1546
171 1 35.7592 -35.1429 -37.7697
170 1 35.3141 -34.6625 -38.4885
194 1 40.4114 -36.7307 -35.0768
193 1 39.4562 -36.835 -35.0776
192 1 38.6177 -36.3456 -35.1709
174 1 34.7166 -33.6042 -36.9145
175 1 34.6322 -33.8064 -35.9556
176 1 34.0023 -34.3289 -35.4711
177 1 33.1852 -33.8422 -35.5394
190 1 38.5219 -35.2705 -34.5692
191 1 38.213 -35.4796 -35.4247
179 1 33.8298 -32.8423 -35.057
178 1 33.4953 -33.0487 -35.9547
182 1 35.2323 -33.2714 -33.5547
188 1 37.9333 -35.5924 -33.2983
183 1 35.7182 -33.7803 -34.2371
189 1 38.1344 -36.0329 -34.1008
186 1 36.6308 -35.6781 -32.9114
187 1 37.0492 -35.5095 -33.7853
180 1 34.3075 -33.4371 -34.3823
181 1 34.5194 -32.6716 -33.8412
185 1 35.7939 -35.3415 -33.382
184 1 36.1863 -34.5555 -33.8469
35 1 -14.3883 43.7075 -24.6177
33 1 -15.2191 42.2873 -23.8259
32 1 -15.2282 41.4617 -23.3741
34 1 -14.5303 42.8353 -24.2598
36 1 -13.6897 44.0458 -24.106
31 1 -15.2026 41.3714 -22.4198
30 1 -15.0519 41.6434 -21.475
38 1 -14.6541 44.9278 -23.1197
42 1 -16.5164 43.4458 -22.1014
41 1 -16.4762 44.3032 -22.549
39 1 -15.3234 45.3272 -23.6884
44 1 -18.2149 42.7012 -22.4197
25 1 -18.2341 40.2501 -20.9949
37 1 -13.7659 44.8001 -23.4837
3 1 -22.1455 44.8944 -21.6137
49 1 -19.975 45.648 -22.5874
1 1 -21.2092 46.0985 -22.1438
50 1 -20.7892 45.9493 -22.972
29 1 -15.2946 41.1817 -20.6706
28 1 -16.1984 41.0921 -20.9579
40 1 -15.8729 44.7079 -23.1879
47 1 -18.8425 44.7974 -21.4428
48 1 -19.5181 45.462 -21.7792
46 1 -19.0568 44.3623 -22.3301
45 1 -18.5118 43.5912 -22.5607
43 1 -17.4121 43.25 -22.3463
19 1 -20.4646 40.5877 -21.7134
21 1 -19.9635 39.4584 -22.2948
20 1 -20.5847 40.0776 -22.5404
23 1 -19.4477 39.2208 -21.1561
15 1 -22.5601 42.1511 -20.5775
22 1 -19.0288 39.3925 -21.9994
24 1 -19.0494 39.8504 -20.5701
4 1 -22.8607 45.4626 -21.2303
2 1 -21.934 45.5269 -22.3652
14 1 -22.1972 41.5414 -19.8704
26 1 -17.5184 39.9613 -21.6208
27 1 -16.7079 40.3108 -21.3431
5 1 -22.2156 46.1304 -20.8806
6 1 -21.3395 46.1691 -20.4789
7 1 -21.833 45.6646 -19.8465
17 1 -21.021 41.9263 -21.5241
18 1 -20.303 41.5252 -22.0129
16 1 -21.6277 42.0946 -20.7442
12 1 -21.1314 42.7354 -19.7329
13 1 -22.0445 42.4514 -19.5101
11 1 -21.0425 43.2069 -18.8697
10 1 -21.6473 43.9404 -18.9203
9 1 -22.064 44.443 -19.5975
8 1 -22.214 45.2298 -19.0707
ITEM: TIMESTEP
3300000
ITEM: NUMBER OF ATOMS
100
ITEM: BOX BOUNDS ff ff ff
-5.0000000000000000e+01 5.0000000000000000e+01
-5.0000000000000000e+01 5.0000000000000000e+01
-5.0000000000000000e+01 5.0000000000000000e+01
ITEM: ATOMS id type x y z
199 1 34.9465 -43.9184 -41.3059
200 1 35.6829 -43.8634 -41.9314
151 1 36.4809 -43.4533 -41.5206
152 1 36.2148 -42.5657 -41.6391
153 1 36.959 -42.0629 -41.3379
154 1 36.2749 -41.8464 -40.7262
197 1 33.6709 -43.5417 -40.6859
196 1 34.3073 -43.424 -39.9856
195 1 34.9638 -43.4611 -39.246
198 1 34.489 -43.0833 -40.8833
160 1 37.0508 -44.3871 -39.0676
156 1 36.6948 -43.1313 -39.6291
155 1 36.1767 -42.5527 -40.1401
157 1 37.5334 -43.5402 -39.7646
158 1 38.5609 -43.5795 -39.7431
159 1 38.0145 -44.1475 -39.1456
161 1 37.1722 -44.2493 -38.1326
162 1 37.4989 -44.0446 -37.1917
193 1 33.8884 -43.9062 -38.5575
194 1 34.666 -43.3943 -38.3707
191 1 34.3069 -44.9289 -38.3706
192 1 33.3615 -44.6956 -38.3317
164 1 38.6062 -43.638 -37.0089
165 1 38.4369 -43.0246 -36.2877
163 1 38.1971 -43.8894 -37.8452
190 1 34.6723 -45.2465 -37.5348
188 1 34.3672 -44.6477 -35.8697
189 1 34.4852 -45.261 -36.6071
166 1 37.7494 -43.4181 -35.7254
167 1 38.5796 -43.8369 -35.5144
168 1 38.5916 -44.4 -34.662
186 1 35.8038 -44.3888 -35.2665
187 1 35.081 -44.9787 -35.3289
183 1 35.5943 -43.3282 -35.1953
185 1 35.8 -44.5332 -36.2209
184 1 35.1975 -43.7938 -35.9756
172 1 37.1635 -43.1706 -32.3375
173 1 36.434 -43.5782 -31.8375
171 1 37.5054 -42.9719 -33.1835
169 1 38.1055 -44.6386 -33.9191
180 1 34.3604 -42.264 -34.5249
170 1 37.9398 -43.7256 -33.5872
182 1 35.2393 -42.4547 -35.4075
181 1 34.3267 -42.1898 -35.4938
174 1 35.6542 -44.0785 -31.7338
179 1 34.5514 -43.2497 -34.4787
178 1 34.9424 -42.9324 -33.6855
175 1 34.7385 -43.9538 -31.4517
177 1 34.9097 -43.4489 -32.8348
176 1 34.3549 -44.002 -32.342
4 1 -20.0305 44.1271 -24.2564
3 1 -20.2174 44.0966 -23.305
2 1 -20.7143 44.9209 -23.229
7 1 -20.6629 42.519 -24.7275
5 1 -20.0074 43.4367 -24.8915
6 1 -20.9589 43.3172 -25.1573
1 1 -20.9627 44.857 -22.2973
50 1 -20.0947 45.1481 -22.482
16 1 -22.771 41.6196 -21.1757
17 1 -23.4045 41.2843 -20.5681
15 1 -22.926 40.9503 -21.8391
14 1 -23.3057 40.2458 -22.3425
9 1 -21.7278 42.1306 -23.4783
8 1 -21.367 41.9321 -24.3114
49 1 -19.3479 44.5729 -22.227
48 1 -18.6604 44.9201 -21.5196
47 1 -18.7224 45.5829 -20.8004
19 1 -24.1476 43.0361 -20.2698
13 1 -23.3406 41.1571 -22.7691
10 1 -22.3167 41.5265 -23.0051
11 1 -22.1908 41.8464 -22.1242
12 1 -23.1429 41.9795 -22.3066
18 1 -23.7033 42.1528 -20.3019
45 1 -19.4846 46.3888 -21.1155
46 1 -18.9157 45.9014 -21.7161
44 1 -20.2517 45.8258 -20.9663
35 1 -25.396 46.5318 -21.5669
37 1 -23.7166 46.4705 -22.2199
38 1 -22.8928 46.8668 -21.8839
40 1 -22.0564 46.4184 -20.6441
43 1 -19.6527 45.7385 -20.2517
22 1 -24.7785 44.3293 -19.0802
21 1 -24.5106 43.5845 -18.5001
20 1 -24.2673 43.1521 -19.2797
24 1 -26.4031 45.0528 -19.4752
23 1 -25.717 44.374 -19.1521
33 1 -24.5921 47.0012 -20.3193
36 1 -24.4741 46.5295 -21.5762
34 1 -25.4715 47.0682 -20.7503
42 1 -20.6098 45.8624 -20.0388
41 1 -21.5533 46.2475 -19.8214
31 1 -24.9695 48.5951 -19.5083
32 1 -24.8075 47.8621 -20.0652
39 1 -22.8747 46.4223 -21.0324
25 1 -26.6695 45.9878 -19.2504
26 1 -26.2495 45.9875 -20.1062
27 1 -26.198 46.9005 -19.8179
28 1 -25.2567 46.806 -19.5636
29 1 -24.6889 47.0671 -18.8753
30 1 -25.1124 47.9422 -18.8439
ITEM: TIMESTEP
3400000
ITEM: NUMBER OF ATOMS
100
ITEM: BOX BOUNDS ff ff ff
-5.0000000000000000e+01 5.0000000000000000e+01
-5.0000000000000000e+01 5.0000000000000000e+01
-5.0000000000000000e+01 5.0000000000000000e+01
ITEM: ATOMS id type x y z
153 1 31.1522 -44.2116 -31.5147
154 1 30.827 -45.1188 -31.6418
151 1 31.3554 -43.0696 -32.3855
152 1 31.8856 -43.6917 -31.8353
199 1 30.1807 -42.2242 -31.8565
200 1 31.0826 -42.1253 -32.2189
189 1 34.6868 -44.5628 -30.4844
190 1 33.7901 -44.2319 -30.7986
157 1 29.8544 -44.988 -29.7737
156 1 29.9244 -44.3565 -30.4428
155 1 29.9666 -44.7207 -31.376
158 1 29.0314 -44.5548 -29.7
198 1 29.9692 -42.2187 -30.9459
197 1 30.5656 -42.4223 -30.2022
195 1 31.7877 -42.592 -30.3232
194 1 32.2876 -41.8609 -30.625
193 1 32.8383 -42.5962 -30.9198
192 1 33.616 -43.1132 -30.729
191 1 33.4336 -43.7331 -30.0769
187 1 35.0902 -42.9777 -31.0769
188 1 35.1591 -43.708 -30.5332
180 1 31.6427 -39.3356 -31.4712
24 1 -13.6656 41.4878 -31.3913
159 1 28.6222 -43.7154 -30.0086
161 1 27.9542 -43.0431 -28.9884
196 1 31.2296 -42.2572 -29.5474
160 1 28.6687 -42.8409 -29.6533
170 1 26.489 -38.6689 -29.3572
169 1 26.7684 -39.3317 -30.043
186 1 34.7922 -42.1109 -31.63
185 1 34.9121 -41.4284 -30.9638
172 1 28.3749 -38.424 -29.5915
171 1 27.4835 -38.4927 -29.4138
179 1 31.3582 -38.7191 -32.1744
178 1 30.7894 -38.6584 -31.4491
181 1 32.5881 -39.5298 -31.4533
182 1 33.4916 -39.5578 -31.2843
23 1 -13.5627 40.904 -30.6333
22 1 -12.9316 41.0999 -29.9675
21 1 -12.9978 40.1339 -30.1346
27 1 -12.9238 43.47 -30.6652
25 1 -13.7979 42.366 -30.8838
26 1 -13.5231 43.1107 -31.4554
31 1 -14.4031 45.638 -30.01
32 1 -13.7578 45.9427 -29.4364
30 1 -13.8342 44.9277 -29.6493
34 1 -14.9714 46.8252 -28.73
33 1 -14.2991 46.763 -29.4569
166 1 26.8243 -41.5749 -28.4135
163 1 28.7467 -41.9896 -27.8549
168 1 27.2179 -39.9422 -29.4353
167 1 27.1351 -40.8167 -29.022
164 1 27.9954 -41.9684 -27.221
162 1 28.4032 -42.2403 -28.8058
184 1 34.2199 -40.7927 -31.2384
183 1 33.6999 -40.3495 -31.9283
173 1 28.1937 -38.9283 -30.37
174 1 28.5689 -39.7991 -30.6329
175 1 28.9005 -39.0075 -31.0697
176 1 29.698 -38.5703 -31.4701
177 1 30.2436 -38.4316 -32.2164
19 1 -11.9792 39.7415 -28.5746
20 1 -12.5838 39.8363 -29.2856
28 1 -12.6828 44.3546 -30.9731
29 1 -13.1564 44.8443 -30.3699
35 1 -15.8266 46.666 -28.2757
36 1 -15.6956 47.3334 -27.5677
165 1 27.0335 -41.9912 -27.5154
18 1 -12.7637 39.2407 -28.1319
17 1 -13.6386 39.2469 -27.8704
16 1 -13.1682 39.9575 -27.5131
37 1 -15.4671 47.058 -26.6554
38 1 -16.2845 47.1073 -26.1772
39 1 -16.8816 47.8289 -26.1276
40 1 -16.4116 47.9432 -25.2605
12 1 -13.4583 42.4858 -26.3916
14 1 -13.1678 41.7083 -28.0929
15 1 -13.0746 40.7137 -28.0727
42 1 -14.8567 47.666 -25.1068
41 1 -15.5847 48.2745 -24.9595
13 1 -13.1814 42.2287 -27.2513
11 1 -14.0829 43.2253 -26.2094
6 1 -13.0171 44.2251 -24.418
10 1 -15.0387 43.4968 -26.1394
5 1 -12.9521 45.1838 -24.5282
4 1 -13.646 44.9397 -23.9288
3 1 -14.4689 45.4103 -23.9601
2 1 -13.7099 45.9834 -23.6766
45 1 -13.4678 47.8999 -25.9109
46 1 -12.5833 47.4818 -25.8252
44 1 -13.9218 48.7503 -25.6562
43 1 -14.7468 48.3116 -25.8145
8 1 -14.4215 43.1661 -25.053
7 1 -13.8245 43.8691 -24.7839
9 1 -14.6795 44.072 -25.4265
1 1 -13.9795 46.5817 -24.42
50 1 -13.1741 47.1241 -24.6739
49 1 -13.0281 47.86 -24.1267
47 1 -12.3547 48.4484 -25.8179
48 1 -12.752 48.3298 -24.9642
ITEM: TIMESTEP
3500000
ITEM: NUMBER OF ATOMS
100
ITEM: BOX BOUNDS ff ff ff
-5.0000000000000000e+01 5.0000000000000000e+01
-5.0000000000000000e+01 5.0000000000000000e+01
-5.0000000000000000e+01 5.0000000000000000e+01
ITEM: ATOMS id type x y z
25 1 -31.8157 47.0575 -28.7642
24 1 -31.5048 46.3861 -28.0776
48 1 -24.7119 45.1298 -28.8246
22 1 -32.0381 45.843 -26.4922
47 1 -25.226 45.4993 -29.5523
26 1 -31.4802 47.4108 -27.9906
27 1 -32.0776 48.0986 -28.4105
23 1 -31.726 46.482 -27.1509
29 1 -31.3208 48.4693 -29.4834
21 1 -31.5709 45.492 -27.2658
46 1 -25.3679 46.1423 -30.2144
45 1 -26.0608 46.7718 -30.2278
49 1 -23.9773 44.499 -28.8765
50 1 -23.5664 44.8889 -28.1239
1 1 -23.5044 44.9364 -27.1722
30 1 -31.153 47.4999 -29.6795
31 1 -31.1658 48.1059 -30.5152
35 1 -28.2852 47.7747 -28.29
43 1 -27.7544 46.0036 -30.3288
42 1 -27.7587 45.1804 -29.7216
44 1 -26.7528 46.1396 -30.5673
33 1 -29.4751 48.1964 -29.7624
32 1 -30.3512 48.3207 -30.0295
18 1 -30.4518 44.8539 -25.6493
8 1 -27.7804 45.416 -27.1566
6 1 -26.2585 45.0506 -26.1141
7 1 -26.9749 45.2088 -26.7199
19 1 -31.3127 44.9827 -25.9656
20 1 -32.0125 44.8897 -26.6942
9 1 -28.0002 44.5375 -26.7048
4 1 -25.5978 44.9687 -27.0444
5 1 -26.1639 44.2534 -26.5623
2 1 -24.0841 44.472 -26.5021
28 1 -31.172 48.5368 -28.5223
36 1 -27.4321 47.5447 -28.5995
41 1 -27.0638 45.3151 -29.0505
40 1 -26.1711 45.0996 -28.6789
3 1 -24.6754 44.7939 -27.1097
37 1 -26.4973 47.3548 -28.4688
34 1 -28.6892 47.9882 -29.1919
38 1 -26.8887 46.5891 -28.1128
39 1 -26.1115 46.0172 -28.2757
168 1 26.3819 -33.7715 -25.2661
170 1 28.2855 -34.0621 -25.3139
169 1 27.3238 -33.9493 -25.3292
171 1 29.1768 -33.9012 -25.8281
172 1 29.6007 -34.0903 -24.9647
17 1 -30.833 45.6798 -25.2579
16 1 -29.9394 45.7995 -25.5735
15 1 -29.3418 46.4815 -25.9456
14 1 -29.0297 46.0111 -25.1676
13 1 -28.5822 45.6883 -24.3816
11 1 -27.7593 45.7463 -25.6946
12 1 -27.6448 45.7357 -24.72
10 1 -28.2746 44.9621 -25.8688
163 1 23.3255 -34.5321 -24.6666
164 1 24.2034 -34.9125 -24.5371
174 1 30.8934 -34.9008 -24.7941
175 1 31.0418 -35.6843 -24.1983
176 1 30.5878 -36.1887 -23.4109
177 1 30.9481 -36.6951 -22.6861
167 1 26.0834 -33.1942 -24.5509
166 1 25.1507 -33.4578 -24.2656
173 1 29.9582 -34.9692 -24.7838
178 1 31.8985 -36.6165 -22.3503
162 1 22.902 -35.3825 -24.4437
165 1 24.3791 -34.061 -24.2009
161 1 22.7787 -36.225 -23.9431
179 1 32.1206 -35.9489 -23.0399
151 1 25.1218 -37.815 -20.6386
156 1 23.0791 -37.2396 -20.6944
157 1 23.5014 -37.5839 -21.4589
200 1 25.3901 -36.9835 -20.1913
198 1 25.6697 -37.4603 -19.3113
197 1 26.4472 -37.9671 -19.5931
160 1 23.219 -36.4112 -23.1067
159 1 22.7765 -36.2212 -22.2522
158 1 23.2307 -37.112 -22.2152
180 1 32.0686 -35.5477 -22.1207
181 1 31.5753 -35.6217 -21.3217
154 1 23.4305 -38.2181 -19.8849
153 1 24.202 -38.3063 -19.3188
152 1 24.4427 -37.5633 -19.9788
199 1 25.8947 -36.5211 -19.519
155 1 23.0894 -37.3628 -19.7843
187 1 30.8517 -37.6492 -17.7113
186 1 31.3706 -37.1287 -18.4317
188 1 30.1961 -37.0842 -18.1275
196 1 26.5626 -37.6845 -20.5722
195 1 27.4714 -38.0176 -20.2134
185 1 31.8266 -37.6423 -19.033
184 1 31.6449 -36.8781 -19.5745
183 1 31.4595 -37.2311 -20.4714
182 1 31.3777 -36.2789 -20.6813
194 1 27.3872 -38.9225 -19.9745
193 1 28.0988 -38.4431 -19.588
189 1 29.4422 -36.533 -18.3339
192 1 28.549 -37.5372 -19.4277
191 1 28.383 -36.752 -19.8741
190 1 28.8977 -36.4547 -19.1733
ITEM: TIMESTEP
3600000
ITEM: NUMBER OF ATOMS
100
ITEM: BOX BOUNDS ff ff ff
-5.0000000000000000e+01 5.0000000000000000e+01
-5.0000000000000000e+01 5.0000000000000000e+01
-5.0000000000000000e+01 5.0000000000000000e+01
ITEM: ATOMS id type x y z
40 1 -32.2733 37.5687 -25.2607
41 1 -32.7575 37.9978 -25.9853
42 1 -32.351 38.8925 -26.0081
43 1 -32.3943 39.8318 -26.3017
16 1 -30.1805 42.034 -24.4906
39 1 -32.8099 37.0411 -24.6662
38 1 -32.2372 37.2111 -23.8993
36 1 -32.7887 37.4211 -22.9978
37 1 -31.7962 37.3706 -23.0776
35 1 -33.1873 38.1922 -23.4511
3 1 -33.3986 40.8749 -22.3937
45 1 -30.7524 40.5765 -25.6692
46 1 -30.574 39.8836 -25.0578
44 1 -31.5368 40.2484 -26.1202
34 1 -32.3036 38.4138 -23.5718
13 1 -32.2567 42.8637 -24.4165
14 1 -31.4657 42.3579 -24.1499
6 1 -36.1081 40.4646 -22.9485
4 1 -34.4176 40.8044 -22.2422
5 1 -35.3697 40.7455 -22.3168
11 1 -33.8503 42.6558 -25.2092
12 1 -33.0864 42.4165 -24.636
15 1 -31.0727 41.6554 -24.6703
17 1 -29.6164 41.7844 -23.7507
7 1 -35.4259 40.9253 -23.4159
8 1 -35.6636 41.8213 -23.4429
9 1 -35.2926 42.1777 -24.3268
10 1 -34.3844 42.1788 -24.5416
19 1 -30.5418 42.7824 -22.4012
18 1 -30.2255 42.0334 -23.0202
2 1 -33.6741 40.0456 -22.8171
1 1 -33.815 39.5731 -23.6657
47 1 -31.3556 39.9234 -24.5428
33 1 -31.6971 39.2276 -23.6141
32 1 -30.7224 39.253 -23.341
49 1 -32.5562 39.2073 -24.2315
48 1 -31.7717 39.0761 -24.8183
21 1 -29.7316 43.5492 -22.3791
20 1 -30.6351 43.5826 -21.9914
22 1 -29.5968 43.6966 -21.4433
50 1 -32.987 39.9477 -23.9315
31 1 -29.9846 39.7494 -23.0378
30 1 -28.9937 39.6699 -23.1389
29 1 -28.4733 40.4273 -23.4303
27 1 -28.2676 41.6438 -21.9994
26 1 -27.838 42.4958 -21.8693
25 1 -27.8988 43.306 -21.3482
24 1 -28.2812 43.0004 -20.5707
23 1 -28.861 43.815 -20.821
28 1 -28.6727 41.099 -22.7182
188 1 31.899 -35.2472 -16.7391
187 1 31.734 -35.5381 -15.8123
186 1 30.9211 -35.0845 -15.9271
189 1 32.291 -34.4418 -16.3442
190 1 32.0593 -33.5979 -15.7766
191 1 31.4987 -33.2155 -16.4418
183 1 29.1343 -34.7874 -15.102
184 1 29.6668 -34.7234 -15.9542
185 1 30.1288 -35.4655 -16.348
192 1 30.9195 -32.9571 -15.7109
194 1 30.788 -32.0843 -14.0301
193 1 31.0356 -32.5547 -14.9076
180 1 29.1693 -34.9745 -13.2543
182 1 28.466 -34.4537 -14.5566
176 1 30.3754 -33.6831 -11.8581
181 1 28.3408 -34.9262 -13.698
174 1 30.9704 -31.982 -12.0587
175 1 30.3071 -32.7351 -11.9963
195 1 31.5136 -32.649 -13.7589
196 1 31.8389 -33.0696 -12.9573
197 1 31.7221 -34.0352 -12.9183
177 1 29.8981 -34.3905 -11.3563
179 1 29.063 -34.7742 -12.3362
178 1 29.4159 -35.1864 -11.5615
198 1 31.7418 -34.1229 -12.0049
173 1 30.5888 -31.3446 -11.4075
172 1 29.6749 -30.9335 -11.4701
151 1 33.7033 -34.6852 -10.1516
200 1 33.0444 -34.2614 -10.7349
199 1 32.3806 -34.4832 -11.3586
171 1 29.3022 -31.1866 -10.5866
170 1 29.4324 -30.3589 -10.09
169 1 28.7453 -30.8445 -9.50681
168 1 29.5067 -31.3077 -9.25826
152 1 33.0476 -35.3314 -9.93232
154 1 31.8617 -35.6921 -8.96568
153 1 32.071 -35.3203 -9.82218
156 1 32.6285 -34.7202 -8.34918
155 1 32.4953 -35.6814 -8.25834
166 1 30.3797 -31.8153 -9.60942
167 1 30.2316 -30.8116 -9.70058
164 1 29.3433 -33.2116 -9.47138
165 1 29.6031 -32.2678 -9.72656
159 1 32.3605 -32.6341 -7.7155
158 1 32.6141 -33.4335 -7.24637
157 1 32.2509 -34.3144 -7.50284
160 1 31.5564 -32.3855 -8.20013
161 1 31.3296 -32.1604 -9.13027
163 1 30.2231 -33.591 -9.46795
162 1 30.7205 -32.8514 -9.14964
ITEM: TIMESTEP
3700000
ITEM: NUMBER OF ATOMS
100
ITEM: BOX BOUNDS ff ff ff
-5.0000000000000000e+01 5.0000000000000000e+01
-5.0000000000000000e+01 5.0000000000000000e+01
-5.0000000000000000e+01 5.0000000000000000e+01
ITEM: ATOMS id type x y z
34 1 -32.1846 39.3816 -23.1216
35 1 -32.1115 39.4876 -22.1008
32 1 -31.1748 40.5175 -23.1809
33 1 -32.1037 40.321 -23.5177
39 1 -33.9554 40.0805 -22.1298
36 1 -32.9703 39.8422 -21.8593
37 1 -33.0207 38.8867 -21.7566
38 1 -33.844 39.1643 -22.1784
31 1 -31.8415 41.0104 -22.7324
30 1 -32.7181 41.2907 -23.1623
29 1 -32.2753 42.1875 -22.9657
28 1 -32.5504 42.7227 -22.2299
27 1 -33.3037 43.1032 -22.5978
42 1 -33.6681 40.8284 -21.1026
40 1 -34.5658 40.8801 -21.8404
41 1 -34.4278 41.4698 -20.9936
43 1 -33.0521 40.7729 -20.3739
26 1 -33.6757 43.824 -22.0743
25 1 -33.4302 44.5507 -21.4602
44 1 -32.2353 41.2695 -20.3806
45 1 -31.389 40.9134 -20.2244
46 1 -31.4652 41.7552 -19.8905
47 1 -31.8832 41.5262 -19.0087
7 1 -28.061 42.1602 -16.9671
6 1 -27.5929 41.2866 -16.8204
8 1 -28.3449 42.1924 -17.931
10 1 -29.8301 42.3887 -18.5023
9 1 -29.2741 42.0541 -17.8462
12 1 -28.8532 43.4998 -19.2309
13 1 -28.7309 43.2089 -20.1415
14 1 -29.6251 42.9102 -20.3299
11 1 -29.6193 42.8249 -19.285
22 1 -32.5078 44.8063 -19.2706
24 1 -33.5637 44.9182 -20.5593
23 1 -32.8244 44.4569 -20.149
15 1 -29.3963 43.5677 -20.9675
48 1 -31.135 41.2233 -18.4813
2 1 -28.9201 40.8363 -18.9018
4 1 -27.6662 40.1877 -18.0202
5 1 -27.4729 40.3684 -17.0769
49 1 -30.6457 41.1715 -19.2795
50 1 -30.2755 40.3276 -19.0756
20 1 -31.3185 44.4984 -19.4225
21 1 -31.6602 45.2949 -19.1363
17 1 -29.3477 45.4562 -20.5028
16 1 -29.2381 44.4345 -20.6808
19 1 -30.6202 45.1061 -19.5974
18 1 -30.2812 45.0612 -20.4922
3 1 -28.2021 40.2105 -18.8551
1 1 -29.3807 40.0697 -19.1898
175 1 38.6498 -29.333 -7.46977
177 1 38.6267 -27.5073 -6.94912
176 1 38.6585 -28.5088 -6.96247
178 1 39.1625 -26.8749 -6.36504
173 1 37.4695 -30.6101 -7.3671
174 1 37.8671 -29.7505 -7.73945
180 1 40.1322 -27.0585 -5.19315
179 1 39.95 -26.5286 -5.95507
166 1 38.3527 -31.1536 -4.34512
165 1 37.6824 -31.3164 -3.74079
171 1 37.6333 -32.1912 -7.16109
169 1 39.3422 -32.1012 -6.60535
170 1 38.5754 -31.8793 -7.16358
172 1 37.5181 -31.4898 -7.77185
167 1 38.771 -31.0666 -5.22229
168 1 39.2048 -31.7071 -5.76169
181 1 40.8771 -27.0356 -5.83479
182 1 41.4718 -26.9838 -5.10093
183 1 41.5707 -26.5725 -4.22293
184 1 40.8925 -25.8889 -4.66306
185 1 40.8586 -25.9492 -5.64592
164 1 37.4948 -32.2888 -3.76833
153 1 34.7184 -26.6666 -2.35108
152 1 35.3413 -25.994 -2.57139
154 1 33.9717 -26.9708 -1.84562
155 1 34.38 -27.4618 -1.19832
186 1 40.1137 -25.3321 -5.56949
198 1 35.659 -24.8922 -2.28064
191 1 39.1284 -23.7081 -2.19999
189 1 39.4432 -23.5976 -4.01259
190 1 39.6129 -23.704 -3.03859
187 1 39.3455 -25.1184 -5.02031
188 1 39.0357 -24.4518 -4.35798
197 1 36.2953 -24.482 -2.92211
196 1 36.8583 -23.9846 -3.55507
195 1 36.5692 -23.1097 -3.26707
192 1 38.3914 -23.3517 -1.56241
163 1 36.7227 -32.0552 -4.36972
161 1 36.0254 -31.3488 -3.94343
162 1 36.258 -32.2244 -3.57673
157 1 33.7585 -28.892 -2.33746
159 1 34.633 -30.1608 -3.38633
158 1 34.1702 -29.4733 -2.92242
156 1 34.0073 -28.2109 -1.7476
151 1 34.6721 -25.6457 -1.96033
200 1 34.3761 -24.7249 -1.78909
193 1 37.6401 -23.4917 -2.16921
199 1 35.0103 -24.1798 -2.13535
194 1 37.6222 -23.2013 -3.08298
160 1 35.3792 -30.6588 -3.76685
ITEM: TIMESTEP
3800000
ITEM: NUMBER OF ATOMS
100
ITEM: BOX BOUNDS ff ff ff
-5.0000000000000000e+01 5.0000000000000000e+01
-5.0000000000000000e+01 5.0000000000000000e+01
-5.0000000000000000e+01 5.0000000000000000e+01
ITEM: ATOMS id type x y z
39 1 -20.6488 38.0567 -26.135
41 1 -20.2883 37.3412 -27.4639
40 1 -19.9037 37.7526 -26.7072
45 1 -22.0499 40.181 -26.4053
43 1 -21.326 38.9421 -27.6614
47 1 -22.254 41.4688 -26.9106
48 1 -22.2021 41.3368 -25.9778
46 1 -21.5144 40.861 -26.8195
26 1 -21.7662 34.1393 -21.4091
25 1 -21.4709 34.5783 -20.5263
27 1 -21.7686 35.0865 -21.4459
28 1 -22.1695 35.8255 -21.8664
36 1 -19.525 36.8568 -24.7841
29 1 -22.6043 35.6908 -22.7172
38 1 -20.1481 37.7439 -25.3344
37 1 -20.136 37.6194 -24.4073
44 1 -21.5351 39.5205 -26.9212
42 1 -20.8495 38.1008 -27.695
50 1 -21.8695 40.7709 -24.9723
49 1 -22.7526 40.8112 -25.3972
2 1 -22.1859 41.1532 -23.4477
1 1 -21.5388 41.1596 -24.2081
24 1 -20.5371 34.7776 -20.1901
23 1 -20.895 35.6881 -20.3456
34 1 -19.4398 35.3191 -24.4715
35 1 -19.0651 36.0813 -24.9791
30 1 -21.8198 35.1756 -22.8899
5 1 -20.5718 40.5674 -22.7936
3 1 -21.3553 41.2275 -22.9818
4 1 -21.278 40.3743 -23.3761
22 1 -21.7851 35.9346 -20.1126
32 1 -20.1463 34.915 -23.3898
33 1 -19.5178 35.6077 -23.6001
21 1 -22.1317 36.3672 -20.9023
20 1 -22.7259 37.125 -20.599
31 1 -21.1241 35.0107 -23.5453
6 1 -19.6364 40.4958 -22.904
7 1 -19.8819 39.6046 -22.8913
8 1 -19.3337 38.9258 -23.4336
172 1 33.8279 -24.0107 -19.0216
171 1 33.0735 -23.6756 -18.432
174 1 35.0053 -24.7519 -18.5335
175 1 35.0184 -25.1429 -17.6397
176 1 35.4302 -24.5692 -17.0181
19 1 -21.9993 37.4691 -20.0078
18 1 -21.4963 38.1725 -20.438
17 1 -20.6889 38.0981 -19.9065
16 1 -20.2171 37.3015 -20.2738
15 1 -19.665 36.5484 -20.0394
14 1 -18.7895 36.9192 -20.1625
12 1 -18.2079 37.7942 -21.1346
11 1 -17.8707 37.4423 -21.9345
10 1 -18.368 38.2865 -22.0972
9 1 -18.7033 38.9705 -22.7189
169 1 32.3473 -23.518 -16.7151
170 1 32.5493 -23.6394 -17.6002
173 1 34.606 -24.5792 -19.2934
179 1 36.1717 -23.639 -16.8817
178 1 36.0908 -23.2627 -17.7404
177 1 36.1094 -24.2203 -17.6309
13 1 -19.0486 37.4942 -20.9086
163 1 33.5608 -25.1375 -15.8287
166 1 32.1165 -23.1629 -15.2533
167 1 32.7103 -22.5212 -15.7265
180 1 36.1254 -22.8711 -16.3584
181 1 36.1999 -22.3661 -15.5523
182 1 36.5278 -22.8514 -14.8255
168 1 32.3799 -22.5548 -16.6161
162 1 33.2895 -25.9495 -15.3194
183 1 36.8841 -22.5425 -14.005
165 1 32.0859 -24.0703 -15.4819
161 1 34.1728 -26.1685 -15.6791
164 1 32.8138 -24.6846 -15.3108
184 1 37.2841 -22.0933 -13.2149
185 1 38.2239 -22.1135 -13.5078
159 1 35.6234 -25.3684 -15.6564
160 1 35.0766 -26.0658 -15.2742
186 1 38.4971 -21.368 -13.0091
187 1 39.3739 -20.8666 -13.0246
158 1 35.8712 -24.674 -15.0054
157 1 36.1383 -24.8206 -14.0287
156 1 36.2732 -24.4479 -13.1368
155 1 36.1839 -25.3901 -13.0065
199 1 38.8324 -26.4882 -11.5724
151 1 38.4015 -27.1517 -12.4327
152 1 37.6038 -26.8052 -12.9442
200 1 37.9167 -26.854 -11.6768
188 1 39.9899 -20.9037 -12.2308
154 1 36.463 -26.0472 -13.6835
153 1 37.264 -26.5395 -13.7841
189 1 39.3855 -21.4645 -11.5931
190 1 38.8016 -21.4426 -10.8531
197 1 40.3503 -25.7276 -10.8198
198 1 39.5117 -25.8749 -11.2284
194 1 39.6812 -23.8068 -10.1118
196 1 40.6986 -25.0283 -10.2311
193 1 40.1435 -23.189 -10.644
195 1 40.4867 -24.2614 -9.78844
191 1 38.6383 -22.2728 -10.3366
192 1 39.3905 -22.5737 -10.966
ITEM: TIMESTEP
3900000
ITEM: NUMBER OF ATOMS
100
ITEM: BOX BOUNDS ff ff ff
-5.0000000000000000e+01 5.0000000000000000e+01
-5.0000000000000000e+01 5.0000000000000000e+01
-5.0000000000000000e+01 5.0000000000000000e+01
ITEM: ATOMS id type x y z
26 1 -17.6564 41.6774 -24.9628
25 1 -17.567 42.327 -25.6958
24 1 -16.9099 41.6409 -25.6334
23 1 -16.2582 41.1457 -25.1998
22 1 -15.8111 42.0003 -25.1719
21 1 -15.7769 41.9533 -24.1658
20 1 -15.5398 41.7957 -23.2394
19 1 -15.9363 41.0832 -22.7254
18 1 -16.1957 40.6161 -23.5156
14 1 -16.3602 39.6995 -21.0309
28 1 -18.1127 42.2516 -24.1654
27 1 -17.9358 41.3618 -24.1882
15 1 -16.9032 39.6859 -21.8477
16 1 -16.6833 40.5236 -22.3568
17 1 -17.014 40.183 -23.1465
13 1 -15.8345 39.7638 -20.2312
12 1 -14.9276 39.4648 -20.5323
11 1 -14.1009 39.8221 -20.1545
29 1 -18.8376 42.7069 -23.7067
8 1 -12.6209 40.4578 -22.1275
9 1 -13.1188 39.7261 -21.8328
30 1 -19.6476 42.9464 -23.3901
31 1 -20.3988 42.9818 -22.7953
7 1 -11.8882 40.9821 -22.4523
35 1 -18.7657 45.3595 -22.5904
3 1 -13.243 41.1026 -20.0514
4 1 -12.5674 41.1666 -20.7858
41 1 -15.7848 43.0957 -21.5626
38 1 -17.0057 44.7324 -22.8664
39 1 -17.0329 44.2423 -22.0554
40 1 -16.0874 43.98 -21.8361
10 1 -13.5044 39.8466 -20.9406
32 1 -20.8451 43.7951 -22.9875
33 1 -20.0894 44.4725 -23.1633
6 1 -11.6229 41.9346 -22.3225
5 1 -12.1201 41.5899 -21.494
37 1 -17.3504 45.2352 -22.1204
34 1 -19.4387 45.1966 -23.253
50 1 -12.3563 42.8559 -20.7774
2 1 -13.2306 41.8822 -19.4716
1 1 -12.5274 42.4108 -19.9326
49 1 -13.2409 43.1365 -21.1687
36 1 -18.1674 44.7664 -22.1625
43 1 -16.2388 43.606 -20.1137
42 1 -16.0678 42.8429 -20.7038
48 1 -14.0936 42.8688 -20.8837
44 1 -15.2737 43.9972 -19.9694
45 1 -15.0508 43.0661 -19.9736
46 1 -14.3715 43.1537 -19.2982
47 1 -13.7665 42.7642 -19.9499
154 1 21.7387 -11.3476 -8.87469
196 1 19.2973 -8.79622 -8.62317
198 1 19.5636 -10.5031 -7.82018
197 1 19.511 -9.66366 -8.34774
156 1 21.9858 -9.73434 -9.43973
155 1 22.1856 -10.7147 -9.47175
164 1 26.4385 -8.65003 -9.1865
160 1 23.4942 -8.45206 -9.06424
159 1 22.649 -8.83865 -9.11634
200 1 20.1694 -11.4547 -7.62922
151 1 20.8577 -12.2177 -7.66651
195 1 18.4385 -8.88312 -8.99973
199 1 20.4121 -10.5723 -7.46844
152 1 21.1459 -12.168 -8.56384
153 1 20.7345 -11.4892 -9.10555
167 1 26.8964 -10.2955 -7.84573
165 1 27.0646 -8.83406 -8.50278
166 1 27.1002 -9.78681 -8.63255
192 1 17.3752 -7.30556 -7.73455
193 1 17.208 -7.71259 -8.57151
194 1 17.6216 -8.55925 -8.60832
157 1 21.2313 -9.34144 -10.0238
162 1 24.7921 -9.52428 -9.07164
168 1 26.084 -10.0831 -8.24507
163 1 25.792 -9.32312 -9.24199
158 1 21.9485 -8.70379 -9.81328
161 1 24.0676 -9.07133 -8.60638
188 1 18.2304 -10.4563 -7.16837
186 1 18.4716 -11.4929 -6.98063
187 1 17.5889 -11.1832 -7.26394
184 1 19.2099 -11.3127 -5.67008
185 1 18.5689 -11.9241 -6.11737
183 1 19.659 -12.0044 -6.19303
182 1 20.2044 -11.8121 -5.40816
170 1 24.6746 -10.0196 -7.767
189 1 17.95 -9.49014 -7.18387
190 1 17.1813 -8.92999 -6.80061
191 1 17.4413 -8.01892 -7.12082
169 1 25.2542 -10.6316 -8.17955
171 1 24.7082 -10.6297 -6.97082
177 1 23.7517 -11.4669 -4.84108
180 1 21.8625 -11.3407 -5.03329
176 1 23.8081 -11.738 -5.75172
175 1 23.7578 -12.2507 -6.54064
181 1 20.9488 -11.1706 -5.06688
173 1 24.9303 -12.3376 -6.05062
174 1 24.0961 -12.8906 -5.94391
172 1 24.8384 -11.365 -6.3499
179 1 22.3125 -11.3374 -4.19048
178 1 23.2374 -10.8783 -4.17522
ITEM: TIMESTEP
4000000
ITEM: NUMBER OF ATOMS
100
ITEM: BOX BOUNDS ff ff ff
-5.0000000000000000e+01 5.0000000000000000e+01
-5.0000000000000000e+01 5.0000000000000000e+01
-5.0000000000000000e+01 5.0000000000000000e+01
ITEM: ATOMS id type x y z
4 1 -12.1099 40.4117 -39.4629
1 1 -10.4811 39.8104 -39.8622
2 1 -11.1618 40.4595 -39.8712
3 1 -11.9355 40.58 -40.4008
5 1 -12.9471 39.9341 -39.2523
7 1 -14.3916 40.3257 -38.4528
6 1 -13.8629 39.7553 -39.0873
9 1 -15.6459 40.5568 -38.8582
8 1 -14.8199 40.8243 -39.1964
39 1 -12.2768 37.4753 -40.2274
50 1 -10.5831 39.2257 -39.0699
49 1 -10.9341 38.4231 -38.5927
48 1 -10.1116 38.3749 -38.1221
47 1 -9.7028 37.6439 -38.572
46 1 -9.29016 38.502 -39.062
45 1 -8.71213 38.5012 -39.8524
44 1 -9.49136 38.3908 -40.3644
11 1 -16.1772 40.3379 -38.0004
12 1 -16.4237 40.5103 -37.0813
10 1 -15.3209 39.9022 -38.2414
14 1 -17.8906 41.5116 -36.6994
13 1 -17.3739 40.681 -36.8471
29 1 -15.6492 35.522 -36.3757
28 1 -16.1625 36.2018 -35.9187
35 1 -11.7967 35.4813 -38.6237
36 1 -12.7246 35.8062 -38.7185
37 1 -12.4583 36.0875 -39.6091
38 1 -12.4334 37.0105 -39.3803
40 1 -11.4774 37.0219 -39.9509
41 1 -10.5614 36.8063 -39.8287
27 1 -16.8 36.1786 -35.205
43 1 -9.4634 37.5485 -39.8258
42 1 -9.78025 36.9146 -40.4978
15 1 -17.7838 41.6931 -35.7636
16 1 -17.4292 40.9932 -35.2561
30 1 -15.2255 36.3664 -36.6473
32 1 -13.9921 35.0407 -37.2397
31 1 -14.5249 35.7758 -36.8549
33 1 -13.0484 35.546 -37.269
34 1 -12.2417 35.362 -37.822
25 1 -16.5772 35.9083 -34.2021
26 1 -16.2388 35.3785 -35.0098
20 1 -19.3139 38.7036 -34.7111
21 1 -19.011 37.7722 -34.7985
22 1 -18.598 37.1452 -34.1577
19 1 -19.3013 39.4387 -35.3194
18 1 -18.6192 40.1256 -35.4888
17 1 -17.8021 40.4483 -35.9183
24 1 -17.2475 36.555 -34.1776
23 1 -17.9829 36.6879 -33.5812
154 1 27.5419 -9.89211 -11.7865
155 1 27.7546 -10.761 -11.4414
186 1 20.9895 -10.5245 -12.1103
187 1 21.5214 -9.7102 -12.2481
188 1 21.6641 -10.1058 -11.3903
152 1 25.7765 -9.03424 -11.8208
153 1 26.7372 -9.30214 -11.9539
156 1 27.4479 -11.6318 -11.1285
157 1 26.8829 -11.8795 -10.357
177 1 19.1327 -10.4132 -10.8318
184 1 20.5011 -9.42184 -12.5068
185 1 20.1055 -10.0961 -11.9878
198 1 24.6002 -7.30699 -12.0058
199 1 25.2804 -7.8932 -12.3761
176 1 19.1075 -11.1782 -10.1677
196 1 23.6287 -8.92106 -12.4678
197 1 23.9191 -7.96407 -12.3814
170 1 22.8185 -13.1825 -9.15423
169 1 22.8909 -13.8871 -8.41635
168 1 23.7348 -14.3213 -8.18646
167 1 23.8215 -13.9991 -7.2978
189 1 21.8258 -10.8645 -10.7689
190 1 22.5746 -11.3297 -10.5582
200 1 25.2415 -8.87343 -12.6813
163 1 25.8118 -14.5563 -9.28442
151 1 26.0648 -9.38424 -12.6462
161 1 25.7893 -12.7401 -9.70918
160 1 26.6871 -13.0985 -9.51043
159 1 27.2579 -12.483 -9.06132
158 1 26.7005 -11.7734 -9.44692
172 1 21.058 -12.6833 -9.64949
171 1 22.0395 -12.8922 -9.68492
178 1 19.7086 -9.65628 -11.0525
182 1 19.737 -8.44717 -12.0623
192 1 22.8574 -11.0059 -11.5983
191 1 22.461 -11.8187 -11.3856
193 1 22.9979 -10.2814 -10.8607
174 1 20.6086 -11.4665 -9.22021
175 1 19.6177 -11.5522 -9.45803
183 1 20.6677 -8.6667 -12.0508
194 1 22.6845 -9.88714 -11.6648
195 1 22.8938 -8.92011 -11.8755
165 1 25.0992 -15.0544 -8.28172
164 1 26.048 -15.0385 -8.41871
166 1 24.6928 -14.4582 -7.61658
162 1 25.8163 -13.7345 -9.66133
179 1 19.8851 -8.75898 -10.7233
181 1 20.322 -7.88882 -11.5281
180 1 19.7474 -7.79785 -10.7835
173 1 21.3309 -12.077 -8.98905
ITEM: TIMESTEP
4100000
ITEM: NUMBER OF ATOMS
100
ITEM: BOX BOUNDS ff ff ff
-5.0000000000000000e+01 5.0000000000000000e+01
-5.0000000000000000e+01 5.0000000000000000e+01
-5.0000000000000000e+01 5.0000000000000000e+01
ITEM: ATOMS id type x y z
22 1 -10.8884 36.4443 -33.1757
26 1 -11.9063 38.9398 -34.0123
25 1 -11.5743 37.9856 -34.0464
20 1 -11.3676 35.6599 -32.5583
21 1 -10.386 35.7048 -32.7097
23 1 -11.1385 36.1073 -34.0531
24 1 -11.2936 37.0733 -34.1123
28 1 -10.4935 39.1341 -33.0424
29 1 -10.5547 39.6637 -32.2352
27 1 -11.0018 39.1522 -33.8518
18 1 -11.7693 36.3494 -31.6274
15 1 -10.0776 36.8726 -31.4669
16 1 -10.6042 37.0118 -32.2599
17 1 -11.561 37.2163 -32.0084
19 1 -12.1795 36.1245 -32.4422
13 1 -9.34274 36.7211 -32.4282
14 1 -9.4414 37.4909 -31.7532
12 1 -8.45597 36.754 -32.086
11 1 -7.68618 36.4495 -32.5386
30 1 -11.0512 40.3321 -32.8009
31 1 -10.3384 40.9858 -32.6838
10 1 -7.33051 37.3033 -32.2219
9 1 -6.77486 37.4937 -31.4529
8 1 -6.61552 38.1377 -30.8081
7 1 -6.24162 38.9253 -30.4717
5 1 -6.41086 38.5371 -28.8714
33 1 -8.69126 41.1252 -32.1421
34 1 -8.86611 42.0482 -32.3292
35 1 -8.81551 42.9329 -31.8828
32 1 -9.61264 40.9532 -32.0414
36 1 -8.08581 42.3981 -31.4731
37 1 -8.12298 42.8859 -30.6085
43 1 -5.85067 40.8446 -28.224
44 1 -6.38704 41.2829 -27.5571
4 1 -6.80908 38.7326 -27.95
6 1 -6.2126 39.2244 -29.5098
3 1 -7.44333 38.0251 -28.1378
1 1 -7.88672 38.8389 -29.6681
2 1 -7.42197 38.297 -29.0116
50 1 -7.68237 39.7304 -29.365
49 1 -8.06725 40.547 -29.0948
48 1 -8.45492 40.1695 -28.2377
38 1 -7.62159 43.017 -29.8412
39 1 -7.36034 42.1728 -29.4986
40 1 -6.71756 41.5821 -29.0563
42 1 -6.27689 40.5585 -28.9795
41 1 -6.0321 41.2366 -29.5838
46 1 -7.22374 40.4401 -27.8841
45 1 -7.21545 40.9846 -27.0608
47 1 -7.98131 40.0715 -27.3944
181 1 23.5118 -5.48229 -13.476
173 1 22.3318 -8.34339 -14.1588
175 1 22.942 -7.81315 -12.8384
179 1 22.9083 -6.8797 -13.0773
178 1 21.9882 -6.89259 -12.6488
182 1 23.7434 -4.57952 -13.2683
183 1 24.2353 -3.87827 -12.7628
180 1 23.7062 -6.43117 -13.3266
170 1 20.714 -7.28084 -14.7545
172 1 21.6309 -8.86451 -14.6186
171 1 21.3177 -7.99757 -14.5872
174 1 22.4421 -8.54219 -13.2314
176 1 22.9065 -7.61469 -11.7938
177 1 22.6737 -6.6592 -12.0156
185 1 24.2782 -3.75443 -11.5423
186 1 23.8835 -2.88691 -11.4104
184 1 24.1413 -4.52261 -12.0419
169 1 20.2628 -6.43414 -14.5224
168 1 20.5868 -6.62479 -13.6527
167 1 20.7288 -5.64318 -13.6504
166 1 21.4246 -6.15418 -13.3065
165 1 21.5169 -5.2141 -13.209
163 1 22.8495 -5.52932 -12.3896
199 1 19.252 -5.49106 -13.0051
200 1 19.23 -6.33992 -12.4637
197 1 18.9354 -4.99473 -13.9898
198 1 18.7136 -4.76359 -13.1175
162 1 22.8806 -5.62942 -11.4162
194 1 20.4072 -3.19503 -14.4921
196 1 19.5469 -4.31963 -14.0425
195 1 19.5613 -3.35241 -13.957
193 1 21.3734 -3.10204 -14.2513
188 1 23.6546 -1.68031 -12.0411
187 1 24.3337 -2.08046 -11.4674
155 1 20.2565 -8.13482 -11.4312
156 1 20.0221 -7.25153 -11.378
157 1 20.9067 -6.88589 -11.327
158 1 21.0452 -6.8055 -10.3462
159 1 21.8761 -6.51907 -10.0124
160 1 22.8431 -6.50883 -9.88504
151 1 19.7355 -6.90827 -12.9945
152 1 20.352 -7.65919 -12.8314
153 1 21.236 -8.05975 -12.7667
164 1 22.2093 -4.84938 -12.5892
154 1 20.5576 -8.50786 -12.2503
161 1 22.9879 -6.44603 -10.873
192 1 21.4847 -3.27659 -13.3154
191 1 21.8595 -2.59844 -12.832
189 1 23.1842 -1.25418 -12.7386
190 1 22.6438 -2.058 -12.8315
ITEM: TIMESTEP
4200000
ITEM: NUMBER OF ATOMS
100
ITEM: BOX BOUNDS ff ff ff
-5.0000000000000000e+01 5.0000000000000000e+01
-5.0000000000000000e+01 5.0000000000000000e+01
-5.0000000000000000e+01 5.0000000000000000e+01
ITEM: ATOMS id type x y z
29 1 -18.8965 44.8262 -35.929
28 1 -18.4282 45.4389 -36.4885
27 1 -19.123 45.9782 -36.0787
26 1 -19.9196 46.1884 -35.5119
35 1 -18.5583 41.3484 -34.9274
36 1 -17.7633 41.8913 -34.9601
31 1 -18.8998 43.8479 -36.3911
30 1 -19.6522 44.3639 -36.3513
25 1 -20.2747 45.7778 -34.7158
24 1 -20.5845 46.683 -34.5487
34 1 -18.7352 41.9068 -35.6768
37 1 -17.4034 42.5427 -34.3039
33 1 -18.6589 42.0433 -36.6594
32 1 -19.0641 42.9117 -36.3832
16 1 -19.6531 43.5452 -30.8668
20 1 -20.025 44.6529 -32.8112
19 1 -19.7416 44.4419 -31.9247
17 1 -19.2496 43.5044 -31.7878
18 1 -18.9053 44.4101 -31.4803
21 1 -19.9933 45.5555 -33.3101
23 1 -20.1434 47.1437 -33.8395
22 1 -20.4509 46.3539 -33.4131
38 1 -17.9236 42.4344 -33.4802
40 1 -18.2788 42.3729 -31.9151
39 1 -17.857 42.9125 -32.6131
15 1 -19.4389 42.573 -31.0077
41 1 -17.87 42.9084 -31.2226
42 1 -16.9593 43.0445 -30.8983
44 1 -16.2765 41.5745 -31.1975
43 1 -17.063 42.2199 -31.3268
14 1 -18.7548 43.1201 -30.7015
2 1 -18.5832 44.2536 -28.6452
13 1 -18.8151 42.4879 -29.9788
49 1 -16.4818 43.4079 -29.6267
50 1 -16.8304 44.1313 -29.1775
1 1 -17.681 44.0449 -28.6314
47 1 -16.7819 41.886 -29.6425
48 1 -17.138 42.734 -29.8163
46 1 -16.9502 41.0215 -30.0705
45 1 -17.0802 41.0916 -31.0237
6 1 -18.6832 43.4679 -25.8801
11 1 -19.8437 42.9509 -28.7663
10 1 -19.1436 42.7777 -28.0687
12 1 -19.7037 42.954 -29.7112
4 1 -19.4866 44.1715 -26.8849
5 1 -19.297 44.2058 -25.9207
3 1 -18.8703 44.1713 -27.6568
7 1 -17.8921 43.747 -26.3134
8 1 -17.5294 43.1795 -26.9847
9 1 -18.3885 43.201 -27.4709
193 1 21.5703 -14.2901 -0.180591
194 1 22.1397 -13.5597 -0.0802422
195 1 22.513 -13.4652 -0.949739
196 1 22.2444 -12.5757 -1.46935
175 1 17.8926 -18.8941 3.35023
176 1 17.5825 -19.2465 2.32658
185 1 20.6625 -17.3006 0.334715
187 1 22.1474 -17.8757 -0.28733
189 1 22.5896 -16.2009 0.476036
188 1 22.2001 -16.9948 0.0553337
186 1 21.2934 -17.394 -0.473708
191 1 21.7353 -16.0313 -0.692889
190 1 21.6948 -15.8653 0.246504
192 1 21.8714 -15.1242 -0.645993
197 1 21.5962 -11.893 -1.52842
198 1 21.3952 -10.9951 -1.34915
154 1 21.4175 -8.67714 -0.670254
153 1 20.6164 -8.10802 -0.760379
151 1 20.2255 -9.3188 -2.09934
174 1 18.3691 -18.5005 2.68997
173 1 19.1977 -18.092 2.83092
178 1 16.1625 -19.155 1.27128
177 1 16.7602 -18.8571 2.00257
183 1 19.086 -17.9237 0.6093
184 1 19.8386 -17.846 0.0553636
156 1 20.9227 -9.75594 0.66109
199 1 20.7951 -10.3177 -1.64805
200 1 20.0371 -10.2092 -2.28659
155 1 21.4153 -9.03739 0.158913
152 1 20.5755 -8.85396 -1.39955
172 1 19.4781 -19.0552 2.89841
171 1 20.0918 -18.3301 3.20436
179 1 16.4432 -18.2311 1.07061
181 1 17.5709 -17.8107 0.0234354
182 1 18.4969 -17.6179 -0.103142
170 1 19.8946 -17.9168 4.08703
180 1 17.3654 -17.9154 1.00245
169 1 20.3628 -17.0369 4.3424
168 1 20.3743 -16.7485 3.41317
167 1 20.1859 -15.8531 3.09431
166 1 19.8323 -15.5418 2.27764
165 1 19.5746 -14.6337 2.25857
157 1 20.7051 -9.90466 1.58051
158 1 19.8656 -10.2785 1.24539
159 1 20.3847 -10.7593 1.97745
164 1 19.8569 -14.2798 3.10754
163 1 19.8519 -13.4159 3.60153
161 1 20.4371 -11.809 3.12766
160 1 20.0594 -10.9596 2.83232
162 1 19.7356 -12.4399 3.33238
ITEM: TIMESTEP
4300000
ITEM: NUMBER OF ATOMS
100
ITEM: BOX BOUNDS ff ff ff
-5.0000000000000000e+01 5.0000000000000000e+01
-5.0000000000000000e+01 5.0000000000000000e+01
-5.0000000000000000e+01 5.0000000000000000e+01
ITEM: ATOMS id type x y z
27 1 -14.6791 37.2547 -26.2741
28 1 -15.3612 37.6967 -26.7887
26 1 -14.1725 37.8192 -26.9509
29 1 -15.3796 38.2557 -25.9848
22 1 -15.0323 38.1424 -27.7842
24 1 -13.5473 37.1064 -28.0091
23 1 -14.4791 37.3258 -27.8987
25 1 -13.7533 36.9492 -27.0742
19 1 -16.1605 39.6905 -27.2466
21 1 -14.8218 39.0361 -27.4989
20 1 -15.3221 40.0031 -27.4759
15 1 -18.6665 40.0454 -27.7437
18 1 -16.8743 39.9001 -27.8289
17 1 -17.3601 40.1604 -26.9567
16 1 -17.7862 40.5405 -27.6694
31 1 -16.9935 38.092 -26.6216
30 1 -16.0472 38.3669 -26.603
14 1 -19.1484 39.3403 -27.3079
13 1 -18.9209 38.8645 -26.4778
33 1 -16.757 37.2349 -25.8705
32 1 -16.8495 37.132 -26.8364
34 1 -17.2165 36.5277 -25.3341
35 1 -16.4625 36.9218 -24.8364
10 1 -18.0897 39.6786 -24.6244
12 1 -18.1961 38.7778 -25.8269
11 1 -17.5321 39.2502 -25.2686
40 1 -15.9126 35.9119 -23.223
42 1 -17.0478 36.1297 -24.0137
41 1 -16.1835 35.6868 -24.0618
43 1 -17.8527 35.6787 -24.163
8 1 -19.2197 39.4355 -23.3946
38 1 -15.5854 37.3682 -23.4454
39 1 -15.5677 36.7374 -22.7488
9 1 -18.4034 39.3126 -23.8165
37 1 -15.8927 38.0534 -24.0118
36 1 -16.7161 37.6567 -24.3251
44 1 -17.9356 35.1348 -23.4235
45 1 -18.2032 35.8076 -22.8364
7 1 -18.9188 38.4877 -23.5729
5 1 -19.8624 38.4229 -23.0443
47 1 -17.0244 37.0024 -22.3208
48 1 -16.4622 37.7042 -22.0648
6 1 -19.2112 37.7051 -23.1071
4 1 -19.5054 38.588 -22.1873
1 1 -18.3001 38.2282 -22.2205
3 1 -19.6146 37.7371 -21.7453
2 1 -18.7793 38.1834 -21.4311
50 1 -17.7266 39.0676 -22.083
49 1 -17.204 38.3565 -22.2803
46 1 -17.4279 36.1312 -22.3613
161 1 17.6558 -7.23628 -6.35907
162 1 17.9527 -6.56074 -5.7725
163 1 18.0136 -7.34481 -5.206
164 1 18.6475 -7.79362 -4.58823
158 1 15.3589 -6.95641 -5.28822
159 1 16.1268 -7.35992 -5.75519
165 1 18.5921 -7.39979 -3.66992
197 1 18.7539 -11.1072 -3.14366
198 1 19.703 -10.9753 -3.29351
160 1 16.9946 -7.76193 -5.7583
154 1 16.2443 -8.96634 -3.5479
166 1 18.6725 -7.04767 -2.81317
156 1 16.0288 -7.66352 -4.30036
153 1 17.0721 -9.06559 -2.92696
157 1 15.5989 -6.79929 -4.36465
167 1 18.5525 -6.22848 -2.27977
196 1 18.6849 -11.9118 -2.66813
195 1 17.8186 -11.3666 -2.62972
175 1 14.7937 -8.31177 -0.525273
176 1 14.9363 -9.17114 -0.143312
174 1 15.6565 -7.94317 -0.782992
199 1 19.1828 -10.1982 -2.84191
151 1 18.1 -9.47194 -3.0654
200 1 19.0314 -9.36619 -3.31578
168 1 17.7527 -6.45106 -2.71496
155 1 16.466 -8.53585 -4.39951
152 1 17.3281 -9.63229 -3.64706
169 1 17.6057 -7.06126 -1.94823
180 1 15.6015 -11.139 1.19811
194 1 16.9651 -11.7061 -2.41041
177 1 14.943 -9.10811 0.767441
178 1 15.0012 -10.0501 0.547994
179 1 15.7469 -10.1811 1.16304
193 1 16.9142 -12.2862 -1.61809
192 1 17.1885 -11.5476 -1.02955
173 1 16.3291 -7.46099 -1.27467
172 1 16.566 -8.40394 -1.13564
171 1 17.4905 -8.40205 -1.38065
170 1 18.1124 -7.64617 -1.35453
181 1 16.3226 -10.8088 1.78957
191 1 17.7395 -12.0707 -0.442895
190 1 16.9241 -11.6998 -0.0065651
182 1 17.0429 -10.5827 2.31919
189 1 17.0372 -10.8001 0.173706
188 1 17.8334 -10.703 0.682022
187 1 18.7856 -10.7812 1.02276
183 1 17.4609 -11.4408 2.52235
184 1 18.2304 -11.8293 3.0808
186 1 18.6563 -11.7332 1.27589
185 1 18.3074 -11.9765 2.10097
ITEM: TIMESTEP
4400000
ITEM: NUMBER OF ATOMS
100
ITEM: BOX BOUNDS ff ff ff
-5.0000000000000000e+01 5.0000000000000000e+01
-5.0000000000000000e+01 5.0000000000000000e+01
-5.0000000000000000e+01 5.0000000000000000e+01
ITEM: ATOMS id type x y z
33 1 -27.4331 39.8265 -11.1088
32 1 -26.5618 39.4629 -11.4245
37 1 -28.4398 38.9155 -12.3512
36 1 -28.452 38.234 -11.6359
35 1 -28.2047 38.3082 -10.7251
34 1 -28.1203 39.2617 -10.7386
39 1 -30.0638 39.1715 -13.0401
48 1 -31.1852 38.3671 -8.09575
31 1 -26.1483 38.8628 -10.8427
30 1 -26.1149 38.0385 -10.3895
47 1 -31.5943 38.9577 -8.7165
42 1 -31.7235 39.9808 -11.2899
43 1 -31.6868 39.0771 -11.1383
41 1 -30.8049 39.5929 -11.4913
40 1 -30.0363 39.2172 -12.041
38 1 -29.1508 38.961 -12.9401
180 1 27.1671 -0.644429 -8.991
28 1 -25.465 38.6805 -9.86646
49 1 -31.0956 37.5042 -7.76381
50 1 -30.5842 36.8191 -7.11491
27 1 -24.6959 38.2476 -9.54517
29 1 -25.2601 38.2394 -10.7261
46 1 -32.0104 38.7088 -9.55381
1 1 -30.5182 36.2015 -7.81714
2 1 -30.5059 35.6014 -7.06817
19 1 -26.9319 38.3137 -5.86712
45 1 -32.7326 38.2429 -9.97377
44 1 -32.4748 38.7062 -10.8065
17 1 -27.6334 38.9103 -7.17053
185 1 27.2482 -2.62832 -6.68806
183 1 26.2471 -2.04565 -7.406
184 1 26.7809 -2.82781 -7.50821
181 1 26.6893 -0.571499 -8.20317
182 1 26.8508 -1.37711 -7.7449
179 1 27.8652 -0.543508 -8.30942
178 1 28.3388 -0.0155122 -7.67372
177 1 27.8333 -0.332109 -6.86696
176 1 27.7467 -0.4974 -5.91294
175 1 27.7741 0.0281126 -5.10511
6 1 -30.1265 36.5082 -4.88183
7 1 -30.1458 35.5699 -5.25066
8 1 -29.1773 35.188 -5.40706
24 1 -24.7525 37.2939 -7.86213
26 1 -23.9421 37.643 -9.30587
25 1 -23.9065 37.3334 -8.35251
3 1 -31.1376 35.4079 -6.38857
4 1 -31.1758 36.3092 -6.07055
5 1 -31.0175 36.4983 -5.12154
23 1 -24.6655 37.7613 -7.00445
22 1 -25.6338 37.8006 -6.9358
15 1 -28.9056 38.3135 -7.54564
20 1 -26.7777 37.4318 -6.06809
21 1 -25.8327 37.0447 -6.32492
16 1 -28.2339 38.8358 -7.92196
18 1 -27.3712 38.1168 -6.65648
187 1 26.2912 -3.07481 -5.43964
186 1 26.9811 -2.5503 -5.80011
188 1 26.1469 -2.22544 -5.0228
174 1 28.67 0.124205 -5.40841
173 1 29.2588 0.39999 -4.68872
10 1 -28.6364 36.7219 -5.78122
9 1 -28.705 35.7965 -6.05019
12 1 -30.3612 37.4149 -6.09259
11 1 -29.4927 37.0737 -5.86714
13 1 -30.1231 38.0117 -6.77361
14 1 -29.3135 37.5843 -6.9933
189 1 26.7989 -2.17867 -4.32704
172 1 28.5909 0.526327 -3.98762
171 1 28.5991 1.47837 -4.22892
190 1 26.4474 -1.25472 -4.4659
191 1 26.6878 -0.491284 -3.98306
192 1 26.8154 -0.498322 -2.99954
167 1 30.0264 4.04904 -2.77258
166 1 30.6213 4.27933 -2.08565
165 1 30.6513 4.703 -1.23497
168 1 30.124 3.49959 -3.59196
169 1 29.6571 2.75079 -3.7521
170 1 29.0194 2.01207 -3.53956
164 1 29.7604 4.74727 -1.5425
163 1 29.0126 4.52534 -1.00111
162 1 28.9957 3.59608 -0.769662
161 1 28.5632 3.94432 0.014422
194 1 27.1908 1.1221 -2.01158
193 1 26.969 0.511118 -2.76385
159 1 26.8822 3.50842 0.325349
160 1 27.6253 4.05153 -0.050557
198 1 27.9246 0.585666 0.772837
196 1 27.4363 0.359722 -0.295276
197 1 27.4737 -0.203459 0.503059
195 1 27.4716 0.739428 -1.15604
157 1 25.8848 4.15427 0.778758
158 1 26.7652 4.40753 0.514411
199 1 27.6822 0.670433 1.7192
200 1 27.0811 1.37532 2.08596
151 1 27.7252 2.11108 2.0734
152 1 27.426 2.99874 1.78613
153 1 26.738 3.61192 2.04403
154 1 25.8453 3.93466 1.764
155 1 25.7338 2.99924 1.59633
156 1 25.2724 3.43118 0.899342
ITEM: TIMESTEP
4500000
ITEM: NUMBER OF ATOMS
100
ITEM: BOX BOUNDS ff ff ff
-5.0000000000000000e+01 5.0000000000000000e+01
-5.0000000000000000e+01 5.0000000000000000e+01
-5.0000000000000000e+01 5.0000000000000000e+01
ITEM: ATOMS id type x y z
34 1 -34.2335 34.2572 -9.54832
33 1 -33.4356 34.5578 -9.86378
32 1 -33.9547 35.3588 -10.0299
31 1 -33.986 36.3126 -10.3316
30 1 -33.9269 37.2815 -10.3868
188 1 29.1437 -6.62862 -12.4511
189 1 28.8766 -7.57205 -12.182
187 1 29.9268 -7.09339 -12.1875
186 1 29.4753 -7.33218 -11.3198
39 1 -34.9054 32.9994 -8.02904
37 1 -33.9976 32.1861 -8.35985
35 1 -33.8232 33.399 -9.30439
36 1 -33.4996 33.0096 -8.50506
38 1 -34.5067 32.2824 -7.60481
27 1 -34.0718 37.4442 -8.39264
29 1 -33.5818 38.0904 -10.0618
28 1 -33.6305 37.7852 -9.18132
194 1 28.054 -6.08705 -9.36792
195 1 27.7774 -6.02912 -8.4797
191 1 27.7598 -7.04835 -11.2435
193 1 27.2134 -6.11688 -9.88099
192 1 27.3195 -6.29299 -10.8429
196 1 27.4905 -5.07476 -8.53822
198 1 26.8256 -4.38481 -7.15984
190 1 28.4091 -7.74225 -11.3
184 1 29.898 -6.469 -10.7963
185 1 30.2926 -7.39335 -10.7728
44 1 -37.1433 33.5178 -7.0384
43 1 -37.4536 33.2968 -8.04365
42 1 -37.1707 33.4479 -8.9581
40 1 -35.6755 33.5942 -8.18388
41 1 -36.2308 33.2224 -8.83894
24 1 -33.9868 36.7624 -7.50999
23 1 -33.2212 36.3671 -7.11833
26 1 -33.3407 36.6983 -8.47162
25 1 -33.9257 36.0269 -8.08509
172 1 28.3401 -7.38331 -7.15075
177 1 28.0253 -10.547 -7.87136
178 1 27.9872 -10.1812 -8.79165
197 1 27.0756 -5.1271 -7.67827
171 1 27.9966 -7.82589 -6.3175
200 1 27.4912 -5.2491 -6.31374
181 1 27.794 -7.97928 -9.78912
180 1 28.034 -8.87917 -9.57122
179 1 28.1565 -9.78707 -9.6624
183 1 29.1959 -6.86449 -10.2572
182 1 28.6724 -7.64214 -9.93676
199 1 26.6683 -5.21581 -6.70936
46 1 -37.614 32.7205 -5.48346
45 1 -37.6174 33.3851 -6.16078
22 1 -33.2815 36.5858 -6.16955
21 1 -33.8611 35.8322 -5.94795
175 1 27.892 -8.80341 -7.77627
174 1 28.3942 -9.02788 -6.88464
173 1 28.8237 -8.18024 -6.80549
176 1 27.5589 -9.68148 -7.65107
151 1 28.2784 -4.70699 -6.3081
153 1 28.2552 -4.71461 -4.33514
170 1 27.3311 -7.24359 -6.20892
169 1 26.5692 -7.20957 -5.60584
154 1 27.3835 -4.31121 -4.25603
152 1 28.0957 -4.79215 -5.3659
155 1 26.4457 -4.02089 -4.26521
157 1 26.968 -4.98697 -3.4765
156 1 26.1655 -4.95154 -4.11962
48 1 -39.4468 32.6932 -5.49117
1 1 -39.8378 31.9396 -3.71458
50 1 -40.3317 32.8668 -3.77932
47 1 -38.5202 32.401 -5.67514
2 1 -39.1176 31.3601 -3.40216
3 1 -38.5054 31.9802 -3.01775
4 1 -37.9923 32.6399 -2.58102
19 1 -35.3081 36.0041 -5.83035
20 1 -34.4511 36.0414 -5.19069
18 1 -35.5948 36.6217 -6.49401
166 1 27.0857 -8.92022 -4.68253
167 1 26.1818 -8.51059 -4.66122
168 1 25.963 -7.83179 -5.26406
164 1 27.7235 -7.62786 -3.70587
165 1 27.4876 -8.58281 -3.87046
161 1 29.1731 -6.09456 -5.10244
163 1 27.9032 -7.28289 -4.56163
158 1 27.6063 -5.69796 -3.40144
49 1 -39.6704 33.0211 -4.50957
5 1 -37.1558 32.3994 -3.08511
6 1 -36.1961 32.6594 -3.10263
11 1 -36.1932 35.7592 -3.20458
15 1 -36.5225 37.3848 -5.13523
16 1 -35.9336 37.9694 -5.66523
17 1 -35.4733 37.1599 -5.70804
162 1 28.7653 -6.86189 -4.67901
159 1 28.0068 -6.00308 -4.23404
160 1 28.9685 -6.04946 -4.13703
8 1 -35.1109 33.7429 -3.69963
7 1 -36.0334 33.4285 -3.63836
9 1 -35.3922 34.285 -2.95347
10 1 -35.5228 35.0538 -3.54906
12 1 -35.7488 36.5279 -2.80019
13 1 -35.9924 36.8796 -3.73268
14 1 -36.7061 36.8475 -4.37945
ITEM: TIMESTEP
4600000
ITEM: NUMBER OF ATOMS
100
ITEM: BOX BOUNDS ff ff ff
-5.0000000000000000e+01 5.0000000000000000e+01
-5.0000000000000000e+01 5.0000000000000000e+01
-5.0000000000000000e+01 5.0000000000000000e+01
ITEM: ATOMS id type x y z
165 1 32.8818 -3.19385 -15.8876
168 1 32.694 -1.57522 -16.9171
164 1 32.0905 -2.6937 -15.8596
166 1 33.4476 -2.62274 -16.3743
167 1 33.3798 -1.60415 -16.2961
169 1 31.688 -1.54098 -16.8253
170 1 32.0387 -0.925672 -16.145
171 1 32.1159 0.0166809 -16.2756
163 1 32.3428 -3.06051 -15.001
162 1 31.9959 -2.41495 -14.3559
161 1 32.874 -2.11896 -14.4186
175 1 31.8787 -0.0772907 -14.3375
173 1 32.2942 1.03038 -15.0418
174 1 31.5794 0.841927 -14.445
172 1 31.6769 0.538892 -15.572
153 1 35.458 0.992973 -14.5985
152 1 35.9552 1.72998 -14.2988
151 1 36.8772 1.74543 -14.1822
160 1 33.7061 -1.99241 -13.9213
159 1 34.362 -1.70142 -13.2744
158 1 35.2993 -1.73816 -12.9145
176 1 32.8099 -0.219056 -14.0129
177 1 32.3532 -0.593335 -13.237
157 1 35.7742 -0.935758 -12.7581
156 1 35.2467 -0.298374 -13.2848
191 1 31.9842 1.43342 -12.7765
155 1 34.8307 0.300963 -14.0116
154 1 35.639 0.608157 -13.7051
199 1 37.4101 1.36616 -12.7489
200 1 37.3362 1.06546 -13.6699
192 1 31.5189 2.30984 -12.54
196 1 34.8298 1.72977 -12.8806
197 1 35.8007 1.76568 -13.0431
198 1 36.7088 1.98417 -13.1826
178 1 32.1865 -0.924682 -12.3728
179 1 31.8759 -1.52467 -11.667
180 1 32.55 -1.17974 -11.0828
189 1 31.9447 0.437255 -11.3754
190 1 32.0418 1.23616 -11.8951
193 1 32.3906 2.26581 -12.1893
194 1 33.1789 1.67674 -12.1421
195 1 34.1771 1.86427 -12.2093
187 1 30.4357 -0.209283 -10.3238
186 1 29.86 -0.499422 -9.67321
181 1 32.2257 -0.372463 -10.5415
182 1 32.0968 -0.492732 -9.58882
183 1 31.3983 -1.12391 -9.61917
188 1 31.2676 0.257406 -10.7018
38 1 -36.5774 36.7894 -9.44976
37 1 -35.9912 37.3606 -9.90964
39 1 -35.6727 36.3733 -9.41227
36 1 -35.7202 38.2004 -9.5451
32 1 -36.0894 40.0939 -10.5331
34 1 -35.8816 39.5223 -9.42981
33 1 -35.7085 39.258 -10.355
29 1 -35.6479 41.5916 -10.8369
30 1 -34.818 40.9897 -10.4948
31 1 -35.5609 40.7658 -9.93951
28 1 -35.3832 42.1149 -10.0791
27 1 -34.6174 42.2942 -9.5648
184 1 30.6705 -0.929558 -9.06481
185 1 30.4277 -0.0140376 -9.02185
40 1 -35.3341 35.8676 -8.64272
49 1 -38.1103 36.2668 -7.93734
35 1 -36.4142 38.7813 -9.0777
3 1 -38.6079 39.3181 -7.89409
4 1 -38.2579 40.2724 -7.97636
26 1 -34.1333 42.0479 -8.67213
25 1 -34.831 42.717 -8.6498
24 1 -35.2313 43.4991 -8.20662
23 1 -34.2318 43.614 -8.37571
20 1 -34.6355 44.6806 -7.91642
21 1 -33.6871 44.927 -7.82237
22 1 -33.6061 44.0024 -7.81721
46 1 -37.6665 35.5359 -6.90572
45 1 -36.8292 35.5297 -6.45175
43 1 -35.4405 35.7085 -6.47375
47 1 -37.9224 36.3461 -6.60293
50 1 -38.0763 37.1702 -7.67209
48 1 -37.3085 36.4322 -7.38814
42 1 -35.8472 36.4584 -6.85476
41 1 -35.3917 36.0932 -7.68671
2 1 -38.3019 38.442 -7.47535
1 1 -38.8362 37.6967 -7.44384
5 1 -38.3186 40.5104 -7.07208
6 1 -38.4941 41.3984 -6.81114
7 1 -37.8052 41.9462 -6.45332
10 1 -37.6479 43.4582 -6.6892
11 1 -38.5702 43.1789 -6.7134
9 1 -37.0259 42.8313 -6.36254
12 1 -38.6415 44.1399 -6.78105
17 1 -36.3532 44.7479 -6.85083
19 1 -35.0534 44.3923 -7.1018
18 1 -35.5608 44.775 -6.32796
44 1 -36.2022 36.0574 -5.96985
8 1 -36.9657 41.9779 -5.95432
14 1 -38.2773 45.2135 -5.92642
13 1 -38.1438 44.2376 -6.00057
15 1 -37.5816 45.7331 -6.19901
16 1 -36.7264 45.3208 -6.09336
ITEM: TIMESTEP
4700000
ITEM: NUMBER OF ATOMS
100
ITEM: BOX BOUNDS ff ff ff
-5.0000000000000000e+01 5.0000000000000000e+01
-5.0000000000000000e+01 5.0000000000000000e+01
-5.0000000000000000e+01 5.0000000000000000e+01
ITEM: ATOMS id type x y z
167 1 40.9723 -2.89263 -15.6797
166 1 41.7587 -2.27797 -15.6515
165 1 42.4988 -1.87085 -16.0381
164 1 42.1372 -2.42025 -16.792
162 1 43.2469 -2.18219 -18.0165
163 1 42.7836 -1.8536 -17.2702
171 1 38.7302 -3.63362 -14.2057
170 1 39.7422 -3.70181 -14.194
168 1 40.6779 -3.14923 -14.7786
169 1 40.2407 -2.78964 -14.0624
159 1 45.1155 -3.49901 -18.3531
158 1 44.6461 -3.88728 -17.5737
157 1 43.8349 -4.16616 -17.1012
161 1 44.2113 -1.9266 -17.9086
160 1 44.8781 -2.61521 -18.2397
173 1 37.8439 -3.43481 -13.5321
172 1 37.9129 -4.17187 -14.138
156 1 44.2387 -3.3091 -16.8016
155 1 44.4828 -2.42236 -16.5142
152 1 44.6164 -1.87255 -14.9487
200 1 45.0894 -1.50714 -13.5146
151 1 44.4392 -1.26437 -14.2005
199 1 45.9412 -1.18488 -13.1952
174 1 38.6246 -3.54811 -12.9452
175 1 38.8423 -3.71187 -12.062
176 1 38.6699 -4.16586 -11.1955
178 1 37.7702 -3.60257 -10.9343
190 1 41.6256 -4.66797 -12.4682
192 1 42.4247 -4.59888 -11.86
191 1 41.8909 -5.3862 -11.8895
154 1 44.9139 -1.57114 -16.3046
193 1 43.2974 -4.29794 -12.2889
189 1 40.7806 -4.07483 -12.5081
153 1 45.3358 -2.13978 -15.6753
198 1 46.119 -1.58982 -12.3063
182 1 39.5153 -0.862365 -9.8364
195 1 44.4776 -3.37109 -13.0262
180 1 38.3418 -1.8438 -10.5971
181 1 38.6671 -0.978518 -10.2787
183 1 39.8402 -0.457633 -10.6463
184 1 40.4189 -1.04783 -10.2463
187 1 41.7274 -2.92319 -11.6427
185 1 40.5897 -1.60461 -11.1205
194 1 43.9395 -3.55646 -12.2878
196 1 45.1859 -3.2704 -12.3975
197 1 45.4718 -2.31743 -12.3252
179 1 38.0086 -2.73398 -10.808
177 1 38.5923 -3.60447 -10.4693
188 1 41.0574 -3.17573 -12.3315
36 1 -42.6819 41.3041 -12.5747
37 1 -42.9173 41.6859 -11.7349
38 1 -42.8266 42.5924 -12.0387
39 1 -43.1453 43.5887 -11.8883
43 1 -41.3991 46.1655 -10.5667
42 1 -41.3792 45.389 -11.1015
44 1 -41.5903 46.8089 -11.2312
41 1 -42.1065 44.7474 -11.1425
40 1 -42.6553 43.997 -11.1986
186 1 41.4193 -2.08191 -11.2205
32 1 -43.1089 40.7667 -10.9794
30 1 -42.6195 40.3761 -9.49898
29 1 -42.8945 40.8315 -8.73725
34 1 -43.8022 40.9679 -12.4281
31 1 -43.4299 40.6346 -9.99842
33 1 -43.8973 41.0251 -11.5181
35 1 -43.0016 40.3792 -12.3945
45 1 -42.404 46.369 -11.005
50 1 -42.3305 47.3591 -9.98078
46 1 -43.3753 46.5622 -11.2356
47 1 -44.1251 46.8751 -10.6707
48 1 -43.5775 46.1763 -10.2782
2 1 -41.0223 48.2019 -10.51
1 1 -41.9111 47.8346 -10.6864
3 1 -40.1637 48.5589 -10.2161
4 1 -40.4496 47.6927 -9.84846
28 1 -42.8222 40.6046 -7.77241
27 1 -42.2399 41.0937 -7.23191
26 1 -41.3392 40.9687 -6.84457
25 1 -41.5894 41.6981 -6.18722
24 1 -41.1955 42.2578 -6.84624
23 1 -41.5714 41.8778 -7.62394
22 1 -42.2804 42.3855 -7.28017
49 1 -43.1642 46.874 -9.81605
6 1 -38.9891 48.1272 -9.07992
7 1 -39.9454 48.2651 -8.98746
5 1 -39.4998 47.8004 -9.78942
9 1 -39.8677 48.2097 -7.92555
21 1 -43.045 42.9419 -7.21115
20 1 -42.4744 43.5873 -7.73151
19 1 -41.6937 43.9832 -7.1986
11 1 -40.4918 46.9136 -6.76885
12 1 -40.7881 46.8808 -7.63953
10 1 -39.898 47.5805 -7.22221
8 1 -40.7219 48.2256 -8.4628
17 1 -41.1599 44.7018 -6.41798
18 1 -42.1567 44.5319 -6.56846
16 1 -40.3152 44.1795 -6.47836
15 1 -40.4638 44.6637 -7.34712
14 1 -40.2015 45.221 -8.07195
13 1 -40.1903 46.2148 -7.97583
ITEM: TIMESTEP
4800000
ITEM: NUMBER OF ATOMS
100
ITEM: BOX BOUNDS ff ff ff
-5.0000000000000000e+01 5.0000000000000000e+01
-5.0000000000000000e+01 5.0000000000000000e+01
-5.0000000000000000e+01 5.0000000000000000e+01
ITEM: ATOMS id type x y z
47 1 -42.1931 47.4003 -21.4546
45 1 -42.6493 46.134 -20.978
46 1 -41.8107 46.5803 -21.046
43 1 -43.6125 46.1037 -19.957
44 1 -42.9025 45.4534 -20.2428
39 1 -45.7297 46.1187 -21.3579
48 1 -41.7553 48.0936 -21.0461
50 1 -41.5878 48.8568 -19.6871
49 1 -41.7746 49.0669 -20.6363
1 1 -41.8492 48.0976 -19.1673
15 1 -44.3573 43.2714 -20.1624
16 1 -45.2453 43.5878 -19.9606
17 1 -45.8717 42.9794 -20.4003
18 1 -45.574 42.196 -20.9013
27 1 -48.1613 41.1468 -18.3608
28 1 -48.8406 41.7278 -18.0717
26 1 -47.3079 40.8499 -18.0164
12 1 -43.9953 44.278 -18.0743
14 1 -43.8832 43.7084 -19.484
30 1 -48.9324 43.224 -17.9443
29 1 -49.2211 42.4325 -17.5023
41 1 -44.2975 45.713 -20.6703
13 1 -43.6811 44.4233 -18.9149
42 1 -44.2569 45.4202 -19.767
9 1 -44.3056 46.337 -17.8039
8 1 -44.6274 47.1253 -18.2012
38 1 -45.4684 45.7295 -20.4887
37 1 -45.2735 45.0425 -19.6933
34 1 -46.7612 43.9393 -18.1859
40 1 -44.7787 46.4397 -21.1214
6 1 -44.0684 48.0599 -18.4386
7 1 -44.1965 47.3084 -18.9717
3 1 -42.8825 48.5917 -18.6391
4 1 -43.29 48.6449 -17.7879
2 1 -41.9707 48.67 -18.3285
21 1 -45.2726 39.9421 -20.3755
20 1 -46.0363 40.458 -20.5657
25 1 -46.6528 40.1606 -17.8751
23 1 -45.7419 40.6504 -19.2137
24 1 -45.8243 40.4317 -18.2514
19 1 -45.5179 41.2699 -20.5541
11 1 -43.4681 44.745 -17.3631
31 1 -48.7562 43.7926 -18.7705
32 1 -48.0649 43.0557 -18.7761
33 1 -47.3881 43.278 -18.0642
10 1 -43.8104 45.6611 -17.3477
36 1 -46.1989 44.9221 -19.3267
35 1 -46.1385 44.1401 -18.8835
5 1 -43.7064 47.7977 -17.5642
188 1 42.0516 -12.7674 -13.8832
184 1 40.1882 -11.6787 -13.6718
186 1 41.5573 -12.3685 -14.7032
185 1 40.7583 -11.9911 -14.3369
183 1 39.9526 -10.9658 -14.3434
181 1 41.0418 -9.79933 -14.178
179 1 42.0561 -10.1956 -14.6195
180 1 41.7902 -10.1077 -13.705
22 1 -45.1452 39.9109 -19.3981
187 1 41.892 -11.8353 -13.9828
190 1 43.6417 -13.0805 -13.9657
189 1 42.9067 -12.7892 -14.4023
182 1 40.2224 -10.0813 -14.4663
178 1 42.379 -9.4314 -14.9373
177 1 42.4212 -8.47771 -14.7988
175 1 42.0404 -7.45925 -13.6045
176 1 42.1816 -7.61834 -14.572
151 1 42.7683 -15.2547 -12.6099
196 1 41.9708 -14.0514 -13.155
153 1 43.4725 -13.724 -12.8476
152 1 43.2552 -14.5021 -12.3559
192 1 43.5121 -14.5718 -15.0432
191 1 43.7163 -13.9515 -14.2951
193 1 42.5986 -15.0062 -14.8827
194 1 42.2283 -14.1084 -14.8064
195 1 41.6868 -14.1829 -14.0481
156 1 44.1969 -11.8309 -12.2787
157 1 45.0542 -11.4371 -12.2339
158 1 44.3496 -10.9028 -11.8073
174 1 41.1496 -7.51464 -14.0145
173 1 40.3678 -7.93019 -14.3249
159 1 44.1511 -10.3107 -11.0073
171 1 40.0438 -8.31338 -12.7723
172 1 40.2989 -8.65453 -13.6942
200 1 42.5829 -15.5748 -11.7501
197 1 41.3141 -14.4097 -12.5204
198 1 41.1809 -15.281 -12.1691
199 1 41.8723 -15.9641 -12.2944
155 1 43.4146 -11.8469 -12.8385
154 1 43.8727 -12.7726 -12.7917
160 1 43.5048 -9.71396 -11.4194
161 1 43.0937 -8.92903 -11.7829
162 1 43.0273 -8.01859 -11.5106
170 1 40.9336 -7.86001 -12.7482
168 1 40.5061 -8.16743 -11.5496
169 1 41.1932 -8.55051 -12.2019
163 1 42.4751 -8.50846 -10.8299
167 1 40.4689 -8.77471 -10.8311
165 1 41.7403 -9.6263 -10.5585
166 1 41.3969 -8.68475 -10.5265
164 1 42.5014 -9.42746 -11.0596
ITEM: TIMESTEP
4900000
ITEM: NUMBER OF ATOMS
100
ITEM: BOX BOUNDS ff ff ff
-5.0000000000000000e+01 5.0000000000000000e+01
-5.0000000000000000e+01 5.0000000000000000e+01
-5.0000000000000000e+01 5.0000000000000000e+01
ITEM: ATOMS id type x y z
171 1 40.201 -7.88277 -21.5544
178 1 42.9153 -6.87038 -19.2783
167 1 39.7313 -9.17259 -20.545
174 1 41.2686 -6.17294 -20.9712
173 1 40.7139 -6.41877 -21.6832
179 1 43.8157 -7.17364 -19.3679
180 1 44.2583 -7.78532 -19.8764
170 1 41.1473 -7.92848 -21.7096
169 1 40.9125 -8.78059 -21.2497
172 1 40.0797 -7.03917 -21.9746
165 1 40.765 -9.74728 -19.0607
166 1 40.4627 -9.23494 -19.8145
175 1 40.7418 -6.70537 -20.304
176 1 41.489 -6.97468 -19.7959
177 1 42.2211 -7.52523 -19.4246
181 1 43.6363 -7.58591 -20.517
182 1 42.8745 -8.09341 -20.8309
168 1 40.4392 -9.62613 -21.0992
184 1 42.9495 -6.40895 -21.1318
183 1 42.534 -7.20063 -20.7363
187 1 43.6949 -5.13269 -20.6842
188 1 44.1246 -4.73694 -19.8875
190 1 43.5622 -4.28841 -18.954
186 1 42.8452 -5.45131 -20.9013
185 1 43.2839 -6.09183 -20.2805
189 1 43.6935 -3.88533 -19.9119
17 1 -43.3074 46.4844 -18.9327
18 1 -42.5099 46.9132 -18.5306
19 1 -42.974 47.5799 -17.9707
164 1 41.2789 -9.44895 -18.3472
163 1 40.913 -8.79865 -17.7256
162 1 41.1837 -7.98546 -18.1385
161 1 41.8567 -8.20966 -17.4571
160 1 42.5826 -7.70035 -17.0456
159 1 43.0749 -7.40296 -16.2394
191 1 42.9855 -4.73785 -18.3479
192 1 42.5084 -5.40465 -18.7716
12 1 -43.4132 43.4707 -18.6765
13 1 -43.1896 44.3644 -18.9755
15 1 -43.8248 45.9238 -18.2079
16 1 -44.1798 46.7359 -18.5311
35 1 -41.3818 44.2922 -15.3457
20 1 -42.0308 47.7704 -17.7146
21 1 -41.3427 47.0852 -17.4904
23 1 -41.2903 47.8087 -16.6167
22 1 -41.6391 46.8897 -16.6257
24 1 -40.4672 48.3903 -16.6918
27 1 -38.6982 46.7374 -16.7645
157 1 42.9247 -5.54068 -16.6941
158 1 42.7894 -6.4748 -16.4015
193 1 41.9793 -6.15478 -18.6942
196 1 41.0651 -5.08058 -19.0017
195 1 40.9022 -5.7644 -18.3184
194 1 41.1318 -6.24407 -19.1368
11 1 -44.2333 43.1267 -18.3441
9 1 -44.1763 44.148 -16.7441
37 1 -40.4262 43.853 -14.3313
38 1 -39.4907 43.9981 -14.5575
39 1 -38.8945 43.2506 -14.3486
14 1 -43.4438 45.244 -18.8346
34 1 -40.8329 44.2018 -16.1082
36 1 -41.402 43.8759 -14.517
33 1 -41.4051 43.917 -16.8415
28 1 -38.7649 46.9765 -17.68
31 1 -40.4051 45.1336 -17.6684
32 1 -41.1412 44.8084 -17.1534
26 1 -39.5522 47.1203 -16.6841
25 1 -39.5526 48.0618 -16.9011
29 1 -38.6264 46.0651 -17.6414
30 1 -39.5634 45.6001 -17.4186
155 1 42.0702 -5.36635 -15.8111
153 1 41.4967 -4.83447 -14.3481
154 1 42.0909 -5.45976 -14.8549
199 1 41.3421 -5.48844 -16.6095
200 1 40.9512 -4.97099 -15.8896
156 1 42.205 -4.87051 -16.655
152 1 40.672 -5.18736 -14.3267
197 1 41.4472 -4.90048 -18.187
198 1 41.2161 -4.80596 -17.2056
8 1 -43.558 44.7816 -16.9976
7 1 -42.6407 44.4485 -17.0868
10 1 -44.0558 43.6813 -17.5801
6 1 -42.8902 43.6142 -16.7234
5 1 -43.1046 44.0214 -15.8297
40 1 -38.1775 42.9049 -13.8813
4 1 -43.6879 44.4142 -15.1517
41 1 -38.1322 43.8428 -13.6079
151 1 40.3403 -5.34647 -15.1997
49 1 -41.2514 44.3131 -13.3199
46 1 -40.263 44.5684 -12.1732
3 1 -42.9405 45.0011 -15.2966
2 1 -42.5557 44.9904 -14.3921
1 1 -42.0353 45.0118 -13.5581
44 1 -38.7822 44.7766 -12.2435
45 1 -39.4605 44.2486 -12.6843
43 1 -38.4996 43.866 -11.9582
42 1 -37.8129 43.7892 -12.6901
48 1 -40.9633 45.1226 -12.8178
47 1 -39.9623 45.0837 -12.9077
50 1 -42.0798 43.9931 -13.5402
ITEM: TIMESTEP
5000000
ITEM: NUMBER OF ATOMS
100
ITEM: BOX BOUNDS ff ff ff
-5.0000000000000000e+01 5.0000000000000000e+01
-5.0000000000000000e+01 5.0000000000000000e+01
-5.0000000000000000e+01 5.0000000000000000e+01
ITEM: ATOMS id type x y z
181 1 47.1926 -15.7108 -16.987
180 1 46.9236 -15.0633 -17.6594
160 1 42.528 -11.6594 -17.0263
159 1 42.6092 -10.7966 -16.5617
161 1 42.543 -12.4728 -17.6125
178 1 46.1242 -14.4442 -18.1564
177 1 45.4432 -13.9119 -17.8319
176 1 45.8509 -13.9561 -16.9755
158 1 41.7703 -10.2428 -16.4477
157 1 41.5413 -10.818 -15.7465
175 1 45.9971 -13.1191 -17.4834
174 1 45.5551 -12.4555 -17.9685
182 1 47.3762 -16.5138 -16.4962
185 1 47.8304 -17.7873 -14.5475
183 1 47.5197 -17.0371 -15.7628
184 1 47.6136 -17.9305 -15.4222
179 1 46.8536 -14.0705 -17.6041
163 1 41.4903 -14.018 -17.1321
164 1 42.0097 -14.1928 -16.3201
165 1 42.6697 -13.7981 -16.8202
166 1 43.1027 -14.5744 -17.2551
167 1 43.406 -15.0109 -16.4208
168 1 43.9238 -14.4687 -15.7996
169 1 44.3954 -13.6438 -15.777
155 1 40.8744 -10.2966 -14.904
156 1 40.5022 -10.7181 -15.7353
162 1 41.8717 -13.1927 -17.5724
154 1 40.8333 -11.1092 -14.3992
153 1 40.9068 -11.58 -13.5783
170 1 45.1952 -13.1852 -15.3879
171 1 45.3087 -13.5037 -16.2607
173 1 45.7916 -12.0398 -17.1733
172 1 45.2912 -12.7209 -16.7963
187 1 46.1196 -17.2582 -13.6163
186 1 47.0759 -17.5454 -13.9445
192 1 43.841 -15.9196 -13.6292
189 1 45.409 -15.5077 -13.6537
151 1 42.1404 -11.6182 -12.173
200 1 42.3582 -12.5102 -11.9296
152 1 41.5991 -11.709 -12.8457
188 1 45.8765 -16.336 -13.5967
193 1 43.5977 -15.0558 -13.3243
195 1 43.66 -14.027 -13.2418
194 1 44.3512 -14.599 -12.7928
191 1 44.5776 -16.4878 -13.2262
190 1 44.8954 -15.6342 -12.9075
198 1 42.9744 -13.3937 -11.1911
199 1 42.58 -13.4865 -12.1374
196 1 44.0298 -13.4963 -12.5081
197 1 43.5254 -13.0438 -11.8726
46 1 -48.2871 42.6312 -8.22224
45 1 -47.9401 42.8936 -9.06826
44 1 -47.4397 43.772 -8.93455
43 1 -46.572 43.3519 -8.67587
42 1 -45.983 43.4939 -8.02478
47 1 -48.4927 42.4593 -7.30567
48 1 -48.1682 42.8153 -6.40917
41 1 -45.5585 44.34 -8.04756
49 1 -47.615 42.1692 -6.02875
38 1 -44.7587 45.6624 -8.46598
40 1 -45.0772 44.4364 -7.24218
39 1 -44.5369 44.937 -7.88656
28 1 -43.8934 47.9787 -9.07003
27 1 -43.2038 47.9048 -8.38781
24 1 -42.8401 46.1716 -7.93321
23 1 -42.3539 45.6206 -7.26919
34 1 -45.7339 46.5982 -10.5
33 1 -44.7447 46.6187 -10.6946
32 1 -45.0926 47.5615 -10.6039
26 1 -43.0238 47.199 -7.71623
25 1 -43.4476 46.4829 -7.26838
1 1 -46.6911 41.693 -4.43411
15 1 -42.008 41.4991 -5.53603
17 1 -42.7026 41.5657 -6.42762
18 1 -42.0687 42.2288 -6.55147
50 1 -47.0039 41.764 -5.37023
16 1 -41.8796 41.0523 -6.51656
20 1 -42.2714 43.4533 -7.63976
21 1 -41.5717 44.0847 -7.25422
22 1 -42.322 44.6653 -7.45925
19 1 -42.7216 42.8484 -6.98667
37 1 -45.2895 45.6425 -9.251
36 1 -46.2668 45.7506 -8.97455
30 1 -44.2746 48.3623 -10.3253
29 1 -44.6988 47.851 -9.69733
35 1 -46.4096 46.1591 -9.93092
31 1 -44.2798 47.7632 -11.0883
5 1 -44.2163 40.8213 -3.56966
6 1 -44.1981 41.0267 -4.58175
8 1 -44.1638 41.2317 -5.75836
9 1 -44.2033 40.3764 -6.2325
7 1 -44.7496 41.7032 -5.07103
10 1 -44.858 39.6816 -6.29185
2 1 -45.9477 42.0324 -3.92151
13 1 -42.9201 39.8133 -5.57122
14 1 -42.4287 40.6386 -5.49484
12 1 -43.4649 38.9903 -5.55778
3 1 -45.8014 41.7517 -3.03529
11 1 -44.0944 39.0864 -6.27345
4 1 -44.8843 41.3315 -3.06083
ITEM: TIMESTEP
5100000
ITEM: NUMBER OF ATOMS
100
ITEM: BOX BOUNDS ff ff ff
-5.0000000000000000e+01 5.0000000000000000e+01
-5.0000000000000000e+01 5.0000000000000000e+01
-5.0000000000000000e+01 5.0000000000000000e+01
ITEM: ATOMS id type x y z
153 1 41.2553 -9.53158 -11.4416
152 1 40.5786 -9.66661 -12.2501
155 1 40.0066 -8.96468 -10.603
156 1 40.3222 -8.17804 -11.0412
154 1 41.0263 -9.1452 -10.5811
198 1 39.5137 -10.1124 -11.8447
151 1 40.9132 -9.31971 -13.0866
199 1 39.2694 -9.77298 -12.7397
200 1 40.1867 -9.91564 -13.1936
158 1 38.5398 -7.68524 -10.6651
157 1 39.5215 -7.88842 -10.7882
191 1 39.63 -12.6172 -11.8905
190 1 40.2326 -12.4802 -11.1568
189 1 41.0723 -12.2741 -11.5213
194 1 37.7555 -11.382 -11.7111
193 1 38.5149 -11.0891 -12.3214
195 1 38.3683 -10.7907 -11.2553
197 1 39.8619 -10.5914 -11.1303
196 1 39.0143 -10.3445 -10.7589
181 1 41.1218 -6.77795 -9.95395
182 1 40.6271 -7.5521 -9.6327
160 1 37.5101 -8.21724 -11.8426
180 1 41.1361 -6.23206 -9.20579
165 1 37.4918 -4.65393 -11.8334
159 1 37.6597 -7.90091 -10.9449
166 1 38.2513 -4.77431 -11.2943
176 1 40.8486 -4.4905 -10.3061
172 1 39.7762 -3.54145 -9.68289
175 1 41.4952 -3.82354 -9.93792
186 1 42.2154 -10.0579 -10.5749
192 1 39.12 -11.9127 -12.3643
188 1 41.6043 -11.6871 -10.9622
185 1 41.6383 -9.98479 -9.88953
187 1 41.7671 -10.904 -10.3091
184 1 41.345 -9.29405 -9.24411
183 1 41.0659 -8.39658 -9.58967
163 1 36.737 -6.08003 -11.1186
164 1 37.4747 -5.60403 -11.5894
162 1 36.1719 -6.89522 -11.2816
161 1 36.8761 -7.55141 -11.7963
179 1 40.4935 -5.6708 -8.64269
168 1 39.4336 -3.6058 -11.7697
177 1 40.31 -5.07438 -9.76769
169 1 39.7468 -2.6918 -12.141
170 1 40.0955 -2.78468 -11.2594
178 1 40.5264 -4.70242 -8.94231
167 1 39.152 -4.37016 -11.2922
171 1 39.5946 -2.99842 -10.4707
173 1 40.1265 -3.28241 -8.8075
174 1 40.7877 -3.35183 -9.50732
31 1 -31.2465 39.9015 -9.55905
29 1 -32.782 39.9026 -10.624
30 1 -31.9303 40.1021 -10.2604
40 1 -31.0392 36.4926 -5.9709
36 1 -31.2676 39.3548 -7.80712
39 1 -31.1432 37.293 -6.47374
38 1 -31.2859 38.2323 -6.75365
37 1 -31.4862 39.212 -6.82502
32 1 -30.3629 40.2806 -9.47615
35 1 -30.4901 39.5283 -8.39508
33 1 -29.5757 40.5937 -9.02093
26 1 -34.0472 39.0781 -8.52292
27 1 -33.324 39.4326 -9.09079
28 1 -32.641 39.8499 -9.6179
25 1 -34.7697 39.7255 -8.51722
42 1 -30.9138 35.4135 -4.29029
41 1 -30.8269 36.1767 -5.01461
43 1 -31.7182 36.0536 -4.24724
21 1 -35.4537 40.2041 -5.72394
22 1 -35.2838 40.1491 -6.72831
23 1 -35.5492 40.2346 -7.61436
24 1 -34.66 39.8501 -7.58865
34 1 -29.5614 39.7443 -8.4498
47 1 -33.0726 35.714 -2.35085
46 1 -33.2387 35.4628 -3.26667
45 1 -32.4189 34.9837 -3.50636
44 1 -31.7753 35.7034 -3.34371
12 1 -37.9788 36.9385 -2.32849
13 1 -37.4121 37.4982 -2.86351
15 1 -37.5369 37.1441 -4.53151
14 1 -37.5055 36.8387 -3.60479
16 1 -37.4602 38.114 -4.58068
18 1 -37.3274 39.5404 -5.69205
20 1 -35.9897 40.4827 -5.02524
19 1 -36.8765 40.2704 -5.30123
48 1 -33.0329 35.2045 -1.45022
10 1 -37.6274 37.7028 -0.821874
49 1 -32.1923 35.4229 -0.950821
11 1 -38.0016 37.1094 -1.39148
17 1 -37.5812 38.8095 -5.16317
1 1 -32.775 33.9704 0.19276
9 1 -37.3064 36.895 -0.422731
50 1 -32.5741 34.8538 -0.169288
2 1 -33.4899 33.5277 0.736215
4 1 -34.5082 34.7773 0.596057
5 1 -34.9324 35.5283 0.985861
8 1 -36.4387 37.2411 -0.526921
6 1 -35.7339 35.6699 0.393704
7 1 -36.0095 36.4781 -0.117067
3 1 -34.126 34.0977 1.19617
ITEM: TIMESTEP
5200000
ITEM: NUMBER OF ATOMS
100
ITEM: BOX BOUNDS ff ff ff
-5.0000000000000000e+01 5.0000000000000000e+01
-5.0000000000000000e+01 5.0000000000000000e+01
-5.0000000000000000e+01 5.0000000000000000e+01
ITEM: ATOMS id type x y z
155 1 37.8477 -2.40918 -17.7981
156 1 37.824 -2.25 -18.7387
161 1 41.2417 -0.219894 -19.0784
198 1 33.174 -2.86647 -16.4674
199 1 33.5943 -3.21433 -17.2268
200 1 34.1232 -3.69236 -17.9661
197 1 32.7631 -3.70102 -16.2972
151 1 34.7718 -3.91981 -18.5971
152 1 35.7521 -3.65576 -18.3737
153 1 36.3149 -2.99406 -17.8359
154 1 37.2024 -3.04371 -18.1439
180 1 35.4665 -1.10385 -17.2019
157 1 38.4817 -1.6742 -18.347
158 1 39.3715 -1.16258 -18.3398
159 1 39.5208 -1.05317 -19.2912
160 1 40.2881 -0.648721 -18.9374
162 1 41.6215 -0.461435 -18.2682
179 1 36.2486 -1.15062 -16.6837
178 1 37.04 -0.954255 -16.0671
177 1 37.4868 -1.53364 -16.6891
163 1 42.0137 -1.30142 -18.0918
187 1 36.6059 -4.77298 -16.9566
186 1 36.5882 -4.77567 -15.914
185 1 37.0504 -3.89957 -15.7804
184 1 37.5236 -3.98945 -16.6335
193 1 33.0794 -5.70748 -16.4642
192 1 33.8168 -5.99937 -16.9173
191 1 34.584 -5.65703 -17.3873
188 1 36.4855 -5.72548 -16.838
189 1 35.8256 -5.4311 -17.5638
183 1 37.1604 -3.072 -16.982
182 1 36.4816 -2.48898 -16.7794
194 1 32.5768 -4.98876 -15.9653
195 1 33.2292 -4.37762 -15.6509
196 1 33.1168 -3.48657 -15.3624
181 1 36.0108 -1.86762 -17.3993
176 1 37.5633 -0.694315 -17.0979
164 1 42.7547 -0.88376 -18.6056
175 1 37.95 -0.286163 -16.3685
173 1 38.1556 0.740046 -16.2345
165 1 42.9092 -0.324957 -17.8219
174 1 37.449 0.453355 -16.8502
172 1 38.742 1.19833 -16.8555
171 1 39.5543 1.29646 -16.368
190 1 35.0776 -5.15962 -18.1141
167 1 42.2625 -0.106126 -16.8794
168 1 41.5236 0.395623 -16.4647
166 1 42.7825 -0.920717 -17.0916
169 1 41.0768 0.404751 -15.6305
170 1 40.2341 0.848851 -15.7695
19 1 -41.2004 41.3042 -10.0762
20 1 -40.9842 41.3123 -9.13674
17 1 -39.8907 42.4644 -10.654
18 1 -40.3677 41.8122 -10.2091
16 1 -39.7849 43.1083 -9.94782
12 1 -39.6325 45.3315 -9.27204
11 1 -40.4842 45.0397 -9.39624
10 1 -40.6985 46.0137 -9.26552
9 1 -40.6645 45.8485 -8.31824
22 1 -40.8943 42.3911 -7.79764
21 1 -40.9503 41.4778 -8.15727
23 1 -39.989 42.1317 -7.45769
15 1 -39.7018 43.274 -9.00887
14 1 -38.8673 43.6432 -9.22697
13 1 -39.4791 44.3762 -9.42175
8 1 -40.1843 45.014 -8.39791
5 1 -40.54 45.8141 -6.46519
6 1 -40.2486 44.8855 -6.49269
7 1 -40.109 44.8979 -7.45835
24 1 -40.3202 41.2601 -7.18261
26 1 -40.8671 42.0409 -5.7752
27 1 -41.2721 42.3911 -4.87267
25 1 -40.9868 41.6789 -6.64798
4 1 -39.7623 45.7447 -5.97805
3 1 -39.9059 46.6918 -6.10837
49 1 -38.9248 46.4591 -4.04394
47 1 -38.4565 44.9544 -4.32965
48 1 -38.3548 45.7867 -3.82031
50 1 -39.3786 47.323 -3.94793
28 1 -41.2394 42.1939 -3.87
29 1 -41.1355 43.18 -3.72772
34 1 -40.2556 43.4397 -4.71052
36 1 -38.6351 43.2698 -5.19391
2 1 -39.7213 47.4282 -5.5073
1 1 -39.8121 47.7634 -4.60617
46 1 -37.9929 44.8099 -5.18398
45 1 -37.0634 44.7535 -5.34858
31 1 -40.7259 43.8369 -2.83011
30 1 -41.5155 43.9823 -3.3576
32 1 -39.819 44.1551 -3.17317
33 1 -39.719 43.7808 -4.01988
39 1 -37.5552 43.5601 -3.22859
40 1 -37.5598 43.4203 -4.17824
41 1 -36.7098 43.0581 -4.49847
35 1 -39.5475 43.2801 -5.4266
38 1 -38.5337 43.527 -3.50114
37 1 -38.9526 43.1872 -4.27307
42 1 -35.8609 43.4494 -4.3328
43 1 -35.6577 43.5523 -5.29398
44 1 -36.5225 43.9685 -5.64918
ITEM: TIMESTEP
5300000
ITEM: NUMBER OF ATOMS
100
ITEM: BOX BOUNDS ff ff ff
-5.0000000000000000e+01 5.0000000000000000e+01
-5.0000000000000000e+01 5.0000000000000000e+01
-5.0000000000000000e+01 5.0000000000000000e+01
ITEM: ATOMS id type x y z
153 1 36.3722 5.38989 -31.2898
152 1 35.9252 4.86273 -30.6185
156 1 38.1614 6.52827 -31.0618
154 1 36.9912 6.1295 -30.9012
151 1 36.2341 3.93388 -30.5312
200 1 35.92 3.94372 -29.6295
199 1 36.4778 3.73177 -28.8838
198 1 36.5355 4.65848 -28.9909
157 1 38.8144 7.25595 -31.0125
155 1 37.6269 5.94595 -31.6666
159 1 38.4978 7.02093 -29.7275
158 1 38.0217 7.32361 -30.4869
160 1 38.1941 7.86458 -29.3599
197 1 36.7659 5.59787 -28.927
196 1 36.2161 6.39661 -28.9954
161 1 37.6725 8.10268 -28.5367
162 1 37.9029 8.96499 -28.9896
163 1 37.9172 9.40832 -28.1339
164 1 37.0158 9.23538 -27.7989
183 1 31.9915 2.556 -26.8119
180 1 32.2757 4.08966 -28.5755
185 1 31.6655 3.55662 -25.9591
182 1 32.6192 3.01643 -27.5364
181 1 31.9295 3.3609 -28.0547
184 1 32.4411 3.42641 -26.4329
188 1 32.6403 5.05071 -25.7553
190 1 34.1468 4.48326 -26.911
195 1 35.9521 7.33966 -29.2118
194 1 35.361 6.90761 -28.5996
167 1 35.7622 9.69352 -27.3645
166 1 35.346 8.88473 -27.3476
165 1 36.2837 8.61669 -27.5296
179 1 32.0111 4.90862 -28.2344
186 1 31.362 4.12712 -25.2109
176 1 32.634 6.68386 -26.9719
178 1 32.3087 5.72523 -27.7169
177 1 33.1046 6.28511 -27.7303
175 1 32.9491 7.59711 -27.0411
187 1 31.6284 4.92897 -25.6971
189 1 33.431 4.76972 -26.4002
173 1 34.3825 8.31474 -26.1964
171 1 35.8422 8.70961 -26.1272
191 1 34.5436 4.94937 -27.6761
192 1 34.8975 5.78709 -28.0507
193 1 34.5179 6.49152 -28.6261
172 1 35.2698 8.01297 -26.39
168 1 36.2543 9.79779 -26.5109
170 1 36.3933 9.07268 -25.422
169 1 36.9633 9.25077 -26.1938
174 1 33.8749 7.69941 -26.8457
45 1 -32.5794 32.8524 -5.94741
44 1 -33.4252 32.9499 -5.6663
43 1 -34.0798 33.5498 -5.3454
42 1 -34.2637 34.0233 -4.51176
41 1 -33.9129 34.7606 -5.03598
34 1 -33.8115 36.8601 -3.73666
47 1 -31.5749 32.4685 -6.06412
46 1 -32.3182 32.0684 -6.45093
40 1 -33.5536 34.9636 -4.18004
39 1 -33.001 34.3809 -3.60189
38 1 -32.903 35.0601 -2.93424
37 1 -33.6409 35.2595 -2.37018
36 1 -33.1543 36.0494 -2.70468
35 1 -33.9854 35.9897 -3.22789
32 1 -34.4819 38.604 -3.33636
33 1 -34.0325 37.718 -3.34694
30 1 -33.0328 38.5383 -3.83564
31 1 -33.6174 38.5807 -3.08858
48 1 -31.0428 33.1861 -5.67705
50 1 -30.116 33.8907 -4.30259
49 1 -30.6297 33.7662 -5.07103
1 1 -30.2969 34.7575 -3.87545
2 1 -30.2238 35.213 -2.97596
26 1 -31.844 38.8283 -2.23164
25 1 -31.0809 38.6402 -1.73575
28 1 -32.0088 38.2139 -3.88219
29 1 -32.4792 38.7657 -4.57869
27 1 -31.8366 38.1225 -2.94183
4 1 -29.1416 34.0953 -2.24444
3 1 -29.8208 34.3458 -2.96217
24 1 -30.8433 39.5675 -1.45349
23 1 -31.234 40.3141 -0.993577
21 1 -31.6622 38.7329 -0.305905
22 1 -31.5008 39.727 -0.290869
5 1 -29.9167 34.2201 -1.65108
6 1 -30.8687 34.0476 -1.93281
7 1 -30.6387 33.9322 -0.959705
11 1 -30.4405 34.7163 1.65441
8 1 -31.0434 34.3629 -0.174796
9 1 -31.2617 33.5241 0.344198
10 1 -30.9237 34.0857 1.06322
12 1 -29.7737 34.4204 0.924234
20 1 -30.7946 38.5307 -0.414053
19 1 -30.5821 37.9043 0.23841
17 1 -31.1351 37.7052 1.57952
13 1 -29.7804 34.9225 0.127565
14 1 -29.7368 35.694 0.720287
18 1 -30.5874 38.3943 1.15212
16 1 -31.0387 36.8095 1.30135
15 1 -30.2081 36.4717 0.835955
ITEM: TIMESTEP
5400000
ITEM: NUMBER OF ATOMS
100
ITEM: BOX BOUNDS ff ff ff
-5.0000000000000000e+01 5.0000000000000000e+01
-5.0000000000000000e+01 5.0000000000000000e+01
-5.0000000000000000e+01 5.0000000000000000e+01
ITEM: ATOMS id type x y z
188 1 45.7144 12.9679 -32.1894
186 1 45.6888 14.8427 -32.3392
187 1 45.7705 13.9184 -32.123
190 1 46.5028 13.2047 -30.4739
182 1 46.2049 16.0909 -31.7227
181 1 46.5603 16.9461 -31.2943
180 1 47.38 16.7047 -30.8576
184 1 47.1631 15.3389 -32.09
185 1 46.647 14.6011 -32.4764
179 1 47.5285 16.9225 -29.8945
191 1 46.9758 13.3409 -29.6903
192 1 47.6594 13.9196 -29.3566
189 1 46.2782 12.9283 -31.3894
183 1 46.9749 15.7451 -31.2448
178 1 47.2267 17.2226 -28.9762
177 1 47.8216 17.8351 -29.4448
194 1 48.7054 15.5201 -28.9623
193 1 48.193 14.7253 -29.2003
175 1 48.294 17.4077 -28.3198
176 1 48.4131 17.1049 -29.2338
174 1 48.8702 17.7251 -27.63
173 1 49.4712 18.5137 -27.5223
154 1 46.0835 15.258 -25.9001
153 1 46.2584 15.0416 -24.9407
195 1 48.5037 15.6071 -28.0129
196 1 48.2868 16.4376 -27.4741
197 1 48.9254 16.5449 -26.7697
170 1 47.6274 19.1507 -27.7619
166 1 45.6678 17.4032 -26.8594
171 1 48.2192 18.4727 -28.1001
172 1 48.8223 19.1363 -27.7527
169 1 46.7769 19.2482 -27.3619
157 1 44.9139 13.5441 -26.0097
156 1 45.5944 13.9213 -25.4354
155 1 45.3749 14.8757 -25.3653
152 1 46.3677 15.8475 -24.4073
160 1 43.7647 14.8735 -26.3223
159 1 44.5904 15.2621 -26.7071
158 1 45.0765 14.4662 -26.3164
151 1 46.8154 16.1235 -25.2137
198 1 48.7597 15.6311 -26.555
199 1 47.8868 15.7488 -26.1057
161 1 43.4626 15.6934 -25.7724
162 1 43.9517 15.7617 -24.9002
163 1 44.8588 16.039 -24.9027
164 1 44.8792 16.935 -25.1875
165 1 45.2613 17.0617 -26.0805
168 1 46.4757 18.4776 -27.8504
167 1 46.249 17.5525 -27.633
200 1 47.6255 16.4962 -25.5861
21 1 -41.559 31.408 -0.23514
22 1 -40.8442 30.7593 -0.275357
24 1 -40.0222 30.2651 -0.800356
20 1 -42.206 31.806 -0.888767
19 1 -42.6638 32.655 -1.05925
23 1 -40.9481 29.9411 -0.749601
25 1 -39.7734 30.6046 0.104239
18 1 -42.4711 33.546 -1.45213
17 1 -42.1303 33.299 -2.37122
13 1 -39.2679 33.783 -2.50976
11 1 -37.9272 33.9784 -2.37865
12 1 -38.5913 33.5047 -1.91019
9 1 -36.8627 34.6894 -2.81095
10 1 -37.0933 34.3499 -1.95345
8 1 -37.7198 35.0839 -2.90491
7 1 -37.593 34.6417 -3.84114
6 1 -37.7982 35.0364 -4.65862
5 1 -37.1672 35.7697 -5.06222
1 1 -35.8441 34.5915 -2.72778
4 1 -36.8376 35.3056 -4.35925
3 1 -36.0559 34.6778 -4.21784
2 1 -35.5833 34.2158 -3.56231
29 1 -37.7946 33.2322 -0.0733547
26 1 -38.9237 31.0232 0.142662
27 1 -38.4174 31.7247 -0.369526
28 1 -38.0855 32.3199 0.294785
16 1 -41.6371 32.7539 -1.69843
15 1 -40.9557 33.1111 -2.34236
47 1 -34.6167 34.0098 -0.0172435
46 1 -34.9542 34.7606 0.477889
14 1 -40.0851 33.2935 -2.71522
49 1 -34.3751 34.2335 -1.63246
50 1 -35.0321 34.4134 -2.33775
31 1 -36.1087 33.9403 0.505274
30 1 -36.8766 33.5954 0.0182071
33 1 -37.3044 35.0702 1.38415
32 1 -36.9333 34.4232 0.822589
34 1 -37.6736 34.8625 2.26171
45 1 -35.1456 34.6998 1.50282
43 1 -36.126 33.1348 1.74767
44 1 -35.4875 33.8332 1.8045
48 1 -34.7548 34.5294 -0.832279
37 1 -35.8101 36.1747 1.71275
36 1 -36.2893 35.2465 1.73792
38 1 -35.6429 35.6065 2.48121
35 1 -36.7601 34.8392 2.46377
39 1 -35.0961 35.376 3.21814
42 1 -36.1218 33.3716 2.69348
41 1 -35.6537 33.9537 3.24784
40 1 -35.7828 34.809 3.75072
ITEM: TIMESTEP
5500000
ITEM: NUMBER OF ATOMS
100
ITEM: BOX BOUNDS ff ff ff
-5.0000000000000000e+01 5.0000000000000000e+01
-5.0000000000000000e+01 5.0000000000000000e+01
-5.0000000000000000e+01 5.0000000000000000e+01
ITEM: ATOMS id type x y z
194 1 36.4773 1.678 -18.4429
192 1 38.043 2.35335 -18.0318
193 1 37.132 2.00717 -17.7633
191 1 38.0585 2.75844 -18.857
152 1 36.8786 -2.71996 -19.838
155 1 34.5015 -1.65737 -19.9945
154 1 35.3967 -2.02389 -20.2601
153 1 36.2216 -2.32585 -20.6446
159 1 33.1428 0.991831 -21.5371
158 1 33.7682 0.415414 -21.033
157 1 34.4347 -0.168187 -20.693
156 1 34.4888 -0.688835 -19.9146
175 1 32.4779 -0.3631 -16.6696
164 1 31.8944 0.260843 -18.9625
165 1 32.4775 0.557291 -18.2528
160 1 32.3841 0.901973 -22.1749
196 1 36.5678 0.153846 -18.3177
195 1 36.5199 0.951711 -17.8619
190 1 38.3428 2.65584 -19.748
177 1 31.3953 0.141534 -17.8334
176 1 32.079 -0.514392 -17.5699
162 1 31.9581 1.19253 -20.4787
163 1 31.8914 0.37944 -19.854
161 1 31.7671 0.892927 -21.4166
187 1 36.2545 1.57092 -19.6459
188 1 37.1909 1.56164 -19.5012
189 1 37.8127 1.92347 -20.169
151 1 37.4067 -2.37987 -19.1119
200 1 36.6965 -2.19932 -18.4084
198 1 35.9273 -1.23328 -18.3484
199 1 36.65 -1.35862 -18.9475
172 1 30.6534 0.23589 -16.2372
173 1 31.5528 0.539128 -16.568
174 1 32.4056 0.355182 -16.1117
166 1 32.5165 0.921689 -17.3818
167 1 32.5347 1.88149 -17.162
171 1 29.8663 0.780761 -16.4915
168 1 31.6487 1.8233 -16.7384
197 1 36.4248 -0.634708 -17.7671
178 1 30.9008 0.981956 -17.7147
169 1 30.8419 1.57608 -16.1982
186 1 35.3646 1.82803 -19.3981
180 1 30.867 1.85104 -18.8867
179 1 30.3553 1.07237 -18.5174
183 1 32.9009 2.31766 -19.1484
170 1 29.9963 1.72532 -16.497
181 1 31.5783 1.96495 -18.2193
182 1 32.3733 1.6468 -18.7144
185 1 34.5164 2.31663 -19.6068
184 1 33.7945 1.98928 -19.0705
9 1 -37.3676 34.1738 -8.52167
10 1 -36.97 34.2105 -9.34832
11 1 -36.1954 34.662 -8.97209
12 1 -35.3422 34.3426 -9.33426
13 1 -35.5529 35.1708 -9.83732
4 1 -36.7949 31.8201 -6.85792
5 1 -37.5495 32.3219 -6.51249
6 1 -37.6137 32.9837 -7.19923
7 1 -38.3031 33.6052 -7.35061
8 1 -37.859 33.4385 -8.25592
15 1 -34.2457 35.5173 -8.56895
16 1 -34.4516 34.8655 -7.94673
14 1 -34.9307 35.6569 -9.28896
3 1 -36.4224 32.7523 -6.66668
1 1 -34.9803 32.1891 -7.83882
2 1 -35.6592 32.4075 -7.23315
32 1 -33.4545 34.9633 -4.80576
31 1 -34.2915 34.4489 -4.73935
29 1 -34.0243 33.6846 -5.777
30 1 -34.9388 34.0775 -5.41868
28 1 -33.924 33.6161 -6.7393
18 1 -35.5439 35.6571 -7.15176
17 1 -35.3253 34.945 -7.69671
50 1 -34.7007 32.1944 -6.86931
49 1 -34.843 31.9351 -5.91793
34 1 -33.9078 36.0666 -4.40173
33 1 -33.2075 35.5814 -4.11025
35 1 -34.4775 35.9485 -3.52054
36 1 -35.0953 35.3939 -3.92434
38 1 -35.5981 35.7384 -2.61051
27 1 -33.0922 33.9222 -7.10779
37 1 -35.1408 35.0364 -3.07202
39 1 -36.4033 35.2505 -3.00056
19 1 -35.1257 36.3587 -7.68723
25 1 -33.0976 34.7554 -6.13741
26 1 -32.8434 33.8634 -6.1828
20 1 -34.9564 37.0435 -8.3022
21 1 -34.1415 36.8826 -7.79694
48 1 -35.7811 32.0357 -6.13302
47 1 -35.6611 32.5759 -5.28014
46 1 -36.3435 32.9992 -4.73002
45 1 -35.9863 33.8376 -4.98028
44 1 -36.9247 34.0706 -4.97923
41 1 -37.7003 34.1443 -3.07353
40 1 -37.0335 34.6493 -2.61063
24 1 -33.0436 35.8296 -5.90154
23 1 -33.3021 35.5401 -6.75237
22 1 -33.8094 36.2735 -7.16071
42 1 -37.484 33.887 -4.02645
43 1 -37.1079 34.714 -4.39119
ITEM: TIMESTEP
5600000
ITEM: NUMBER OF ATOMS
100
ITEM: BOX BOUNDS ff ff ff
-5.0000000000000000e+01 5.0000000000000000e+01
-5.0000000000000000e+01 5.0000000000000000e+01
-5.0000000000000000e+01 5.0000000000000000e+01
ITEM: ATOMS id type x y z
186 1 32.996 5.70898 -18.6229
187 1 32.3363 6.38349 -18.6236
188 1 31.8421 6.29255 -17.812
191 1 33.5912 7.18228 -17.9358
192 1 32.7382 7.35025 -18.3601
185 1 32.3579 5.15008 -18.1863
184 1 31.8756 4.46111 -17.7326
189 1 32.7384 6.5775 -17.5266
183 1 31.9643 3.83538 -17.0405
190 1 33.5284 6.89597 -17.0446
197 1 34.4949 6.78668 -18.8158
198 1 35.0007 6.76809 -18.0194
193 1 32.8668 8.16859 -17.9384
194 1 33.4549 8.52382 -18.5635
182 1 32.5067 3.3088 -17.6673
181 1 33.3728 3.06192 -17.2055
180 1 33.1418 3.21651 -16.3133
199 1 35.2647 7.51868 -17.4998
195 1 34.1131 7.94054 -19.0661
196 1 33.6937 7.08919 -19.2239
152 1 36.5061 7.79321 -16.1631
178 1 33.625 4.25417 -16.5449
177 1 34.4738 4.33908 -16.0268
176 1 34.9911 4.84261 -15.463
179 1 33.1454 4.02746 -15.7688
166 1 32.0781 4.82211 -12.7301
169 1 32.956 4.15423 -12.3656
168 1 32.3156 3.48141 -12.455
170 1 33.8026 4.55087 -12.4165
151 1 36.1651 8.02424 -17.0493
200 1 35.2227 8.35446 -17.0501
167 1 31.7167 4.14447 -12.1756
153 1 36.6241 7.36666 -15.2974
154 1 36.2369 6.49484 -15.1929
175 1 35.8595 4.37196 -15.3693
174 1 35.771 4.10215 -14.3691
173 1 35.0454 3.84321 -13.8408
164 1 31.7511 6.04932 -13.2418
165 1 31.8443 5.15251 -13.5635
172 1 34.2011 4.26696 -13.4373
171 1 34.5437 4.9336 -12.7907
157 1 34.7008 7.33361 -13.3251
155 1 35.9101 6.50583 -14.2919
156 1 35.4802 7.29518 -13.8895
162 1 31.5736 7.88834 -12.873
163 1 31.9632 7.00327 -13.2244
160 1 32.9612 7.50004 -13.0734
161 1 32.4222 8.24019 -13.1847
159 1 33.6673 7.05328 -13.4655
158 1 33.9821 7.52859 -12.7299
23 1 -42.6801 31.383 -7.97469
22 1 -42.7947 30.7782 -8.7333
20 1 -41.7779 29.106 -8.21768
21 1 -42.2404 29.9844 -8.51572
19 1 -41.2622 29.6037 -7.61419
25 1 -41.1255 31.871 -7.48523
24 1 -41.9253 31.4577 -7.22021
26 1 -40.7131 31.8665 -6.54259
27 1 -41.5002 32.3243 -6.17875
28 1 -41.7295 32.8586 -7.01288
29 1 -41.159 33.5547 -7.45587
30 1 -40.3204 33.6348 -6.93081
15 1 -40.1991 28.3768 -4.85464
16 1 -40.0002 29.0922 -5.55049
17 1 -40.6727 29.0407 -6.32786
13 1 -39.8698 27.6438 -3.19972
18 1 -40.4034 29.5099 -7.14949
33 1 -39.5361 32.9938 -5.67018
31 1 -40.5973 33.6514 -6.02835
32 1 -40.4382 33.0312 -5.30204
34 1 -38.7163 32.7363 -5.28545
38 1 -39.58 34.0689 -4.34217
14 1 -39.7295 28.1551 -3.99371
12 1 -40.26 28.1502 -2.4193
11 1 -39.9534 28.7667 -3.08721
10 1 -40.8365 28.8322 -2.88804
9 1 -41.6505 29.0762 -3.27921
35 1 -38.4498 33.4546 -5.93435
36 1 -38.0974 33.8915 -5.14795
37 1 -38.8966 33.5944 -4.81508
39 1 -39.0688 34.0581 -3.51351
40 1 -38.4629 33.7844 -2.8156
41 1 -39.1149 33.8645 -2.04986
8 1 -42.2469 29.5192 -3.95651
7 1 -42.3337 30.4007 -3.56321
49 1 -36.922 30.2933 -2.36447
42 1 -39.7874 33.2808 -2.37341
43 1 -39.1584 32.8206 -1.79798
44 1 -38.4901 32.1391 -1.34561
6 1 -41.5624 30.9816 -3.68085
3 1 -39.9588 30.5032 -2.91413
2 1 -39.4032 30.1213 -3.64687
5 1 -40.8598 30.3815 -3.41859
1 1 -38.4683 30.2781 -3.46139
50 1 -37.5082 30.1038 -3.17268
4 1 -40.6527 29.971 -2.56974
47 1 -37.0949 30.7653 -1.29524
48 1 -37.7044 30.2063 -1.735
46 1 -38.035 31.1395 -1.1282
45 1 -38.7325 31.2893 -1.76952
ITEM: TIMESTEP
5700000
ITEM: NUMBER OF ATOMS
100
ITEM: BOX BOUNDS ff ff ff
-5.0000000000000000e+01 5.0000000000000000e+01
-5.0000000000000000e+01 5.0000000000000000e+01
-5.0000000000000000e+01 5.0000000000000000e+01
ITEM: ATOMS id type x y z
194 1 28.4707 14.9528 -8.02317
196 1 28.5063 15.0142 -6.59838
195 1 28.7456 14.4067 -7.28482
191 1 30.0273 16.0048 -9.30029
190 1 30.2793 15.1439 -9.47722
164 1 34.7254 16.9531 -7.9019
193 1 28.4051 14.986 -8.9326
192 1 29.1676 15.551 -9.00929
189 1 30.6046 15.4231 -8.62583
162 1 33.6158 15.8848 -7.88752
197 1 29.4063 14.6176 -6.32487
184 1 33.0733 15.5262 -6.50195
163 1 33.8646 16.7328 -8.1939
165 1 34.5573 17.9417 -8.02181
166 1 35.3533 17.8658 -7.37733
188 1 31.1073 15.3211 -7.77471
186 1 32.2746 15.4925 -7.51088
187 1 31.5936 16.0971 -7.94169
38 1 -30.91 23.0343 -6.30778
37 1 -31.1951 22.3837 -6.93256
39 1 -30.9627 23.7714 -5.67758
40 1 -30.3068 24.4319 -5.86051
45 1 -32.1067 23.8275 -8.29618
43 1 -31.2137 23.7374 -7.4729
42 1 -30.2691 23.6932 -7.19238
41 1 -29.7504 24.1362 -6.53512
199 1 29.7643 15.0119 -5.19673
200 1 30.6584 15.3013 -5.26935
161 1 32.9465 15.3363 -8.36929
159 1 33.0257 14.0654 -6.7401
160 1 33.0608 14.7973 -7.48593
198 1 29.4866 14.1836 -5.49763
183 1 33.595 15.1426 -5.78408
185 1 32.7845 16.1976 -7.14736
182 1 33.8203 15.5295 -4.92384
181 1 33.2784 16.2937 -4.59064
168 1 35.3226 18.9343 -7.50234
180 1 33.8912 16.5448 -3.87376
167 1 35.1364 18.545 -6.6653
169 1 36.1968 19.2796 -7.41067
170 1 36.8588 18.7327 -6.9711
171 1 36.9752 17.8486 -7.39281
173 1 36.8757 16.5309 -6.55915
172 1 36.3052 17.3377 -6.95676
34 1 -29.3457 20.9578 -5.99499
35 1 -30.2735 21.0945 -5.74051
36 1 -31.0037 21.7281 -6.21856
44 1 -31.5364 24.4999 -7.9189
46 1 -32.4913 23.9387 -7.45009
47 1 -32.9877 23.5082 -6.78222
152 1 30.3026 14.0614 -4.74184
151 1 30.598 14.4536 -5.60945
157 1 31.915 13.9208 -6.45124
156 1 31.8794 14.8162 -6.23854
158 1 32.6249 13.8855 -5.87521
155 1 31.7401 15.4053 -5.48951
154 1 31.8903 15.1528 -4.55555
153 1 31.2033 14.4647 -4.59251
179 1 34.4827 17.1891 -4.203
178 1 35.0556 16.646 -4.7649
174 1 36.5227 15.6363 -6.56094
175 1 36.7341 15.6482 -5.61383
177 1 35.9484 16.3097 -4.6061
176 1 35.7909 15.9109 -5.53319
33 1 -28.9104 20.2764 -6.55054
32 1 -28.8536 19.5327 -5.95305
49 1 -32.1981 23.9875 -5.8307
30 1 -29.0099 20.5965 -4.85942
31 1 -29.445 19.8766 -5.32822
48 1 -32.2743 23.1299 -6.31708
50 1 -32.6604 24.9028 -5.5827
1 1 -31.6571 24.9263 -5.60692
27 1 -30.0835 20.6684 -2.58839
4 1 -32.9386 25.2095 -4.03763
5 1 -32.9845 25.8111 -3.27421
3 1 -32.3001 24.5011 -4.26613
28 1 -29.6582 20.3261 -3.36748
29 1 -29.8928 20.5966 -4.35508
2 1 -31.4547 24.6658 -4.64296
26 1 -29.3782 21.2822 -2.80206
25 1 -28.6181 21.5972 -2.24629
6 1 -33.0169 25.9441 -2.30395
7 1 -33.5029 26.217 -1.44875
10 1 -32.1316 24.4437 -0.883293
22 1 -28.6969 22.0546 -0.927976
24 1 -28.3952 22.4973 -2.55394
23 1 -28.4078 22.6352 -1.62052
20 1 -27.4109 21.785 -1.1631
8 1 -32.4976 26.3113 -1.30101
9 1 -32.4251 25.3181 -1.06336
18 1 -27.1137 22.8751 -0.0240941
19 1 -26.8233 22.4483 -0.830261
11 1 -31.3208 24.208 -0.408475
12 1 -30.9928 24.7842 -1.06346
17 1 -28.0262 22.8958 -0.255642
13 1 -29.9728 25.1451 -1.11246
21 1 -28.053 21.4914 -0.456169
16 1 -28.6952 23.5837 -0.314221
15 1 -28.8201 24.4585 -0.67228
14 1 -29.3991 24.4152 -1.47693
ITEM: TIMESTEP
5800000
ITEM: NUMBER OF ATOMS
100
ITEM: BOX BOUNDS ff ff ff
-5.0000000000000000e+01 5.0000000000000000e+01
-5.0000000000000000e+01 5.0000000000000000e+01
-5.0000000000000000e+01 5.0000000000000000e+01
ITEM: ATOMS id type x y z
198 1 32.5988 12.154 -13.8715
197 1 32.4145 11.4723 -14.5358
196 1 31.4385 11.3239 -14.6142
195 1 30.8158 12.0953 -14.7208
194 1 31.304 12.8822 -14.3314
193 1 32.155 13.1932 -13.9506
183 1 31.7043 15.9188 -17.3843
181 1 30.6633 16.8937 -17.6468
179 1 30.4411 17.8972 -18.2695
180 1 30.7396 17.86 -17.4195
172 1 30.2779 21.3599 -16.4049
173 1 30.7143 21.2662 -17.3157
175 1 31.9444 19.8919 -17.769
174 1 31.3843 20.7246 -17.8309
171 1 30.8736 21.0593 -15.7463
170 1 30.6725 21.9399 -15.5001
199 1 32.9607 12.6733 -13.1477
188 1 29.6882 14.2846 -15.2049
190 1 30.3703 15.3635 -14.6409
200 1 33.8778 12.8155 -13.6309
192 1 31.5162 13.9102 -14.1625
182 1 31.5049 16.8306 -17.2419
185 1 31.0975 15.4532 -16.7591
191 1 30.83 14.5925 -14.4413
184 1 31.774 16.0254 -16.4499
177 1 31.2886 19.0269 -17.5181
178 1 31.1501 18.5268 -18.3796
176 1 31.9452 19.4372 -16.9667
166 1 31.1886 19.6255 -12.9601
165 1 31.2784 18.6379 -12.8513
169 1 30.3023 21.3229 -14.8354
168 1 30.9634 20.7237 -14.4967
167 1 30.982 20.0974 -13.7591
151 1 34.0579 12.5072 -14.4955
152 1 34.4026 13.0701 -15.1698
187 1 30.3453 14.9138 -15.5288
189 1 29.4757 14.9862 -14.6225
186 1 30.148 15.3595 -16.425
162 1 32.6113 17.1609 -12.3652
164 1 31.9055 18.1296 -13.3667
163 1 32.6677 17.9891 -12.7584
153 1 33.618 13.4732 -14.8399
154 1 33.998 14.3175 -14.9654
155 1 33.6357 14.4948 -14.1024
156 1 32.7859 14.9162 -14.2713
157 1 33.3201 15.1733 -13.4385
158 1 33.8497 15.6586 -12.7582
159 1 33.0616 15.5821 -12.1705
160 1 32.8308 15.7813 -11.2664
161 1 33.0909 16.5525 -11.815
35 1 -33.5798 23.4804 2.3637
31 1 -32.3582 23.2144 0.561777
34 1 -33.6007 24.3256 1.86962
36 1 -33.9272 22.8254 3.09446
33 1 -33.4059 23.7845 1.10068
32 1 -32.8432 24.0093 0.303967
49 1 -36.0855 24.0764 2.84106
50 1 -35.2367 23.6306 2.83091
1 1 -34.7502 22.8118 2.53799
2 1 -34.4468 21.9016 2.21305
47 1 -37.4313 22.9714 2.85202
48 1 -36.9331 23.7722 2.56357
45 1 -36.4048 23.4592 3.94924
46 1 -37.3314 23.3895 3.74972
28 1 -30.8717 21.6717 0.652396
30 1 -31.4548 23.3981 0.249646
44 1 -36.8896 24.3555 3.74085
43 1 -36.2161 25.0602 3.98481
38 1 -33.4688 23.9107 4.17012
37 1 -34.0377 23.1951 3.99813
29 1 -30.9531 22.5733 0.303912
42 1 -35.4774 25.42 4.44364
41 1 -35.6536 24.5382 4.8813
4 1 -34.3525 20.5326 3.21134
3 1 -33.9247 21.24 2.62124
22 1 -30.4939 20.6746 2.95828
18 1 -28.949 20.0457 3.29126
19 1 -28.8579 20.8917 3.76218
23 1 -31.2848 21.079 2.55706
26 1 -31.3712 20.2546 0.594039
24 1 -30.6372 20.6721 1.87705
25 1 -31.0364 19.8588 1.38007
27 1 -30.4848 20.7466 0.847078
40 1 -34.7423 24.3827 4.92824
39 1 -34.3345 24.1953 4.04881
8 1 -33.5351 19.8173 4.10454
12 1 -30.4344 19.3531 5.14099
10 1 -32.1204 19.9283 4.97469
13 1 -29.8596 19.4127 5.86695
7 1 -33.4587 19.1659 3.33147
6 1 -34.1755 19.078 2.75119
5 1 -34.799 19.7603 2.88271
17 1 -28.349 19.6006 3.85099
16 1 -28.3936 19.8688 4.79128
20 1 -29.5884 20.8378 4.42426
21 1 -29.7729 20.7571 3.52832
9 1 -32.6178 20.0464 4.12024
11 1 -31.2531 19.8887 5.40651
15 1 -28.1085 19.4206 5.61125
14 1 -28.9301 19.0479 5.93839
ITEM: TIMESTEP
5900000
ITEM: NUMBER OF ATOMS
100
ITEM: BOX BOUNDS ff ff ff
-5.0000000000000000e+01 5.0000000000000000e+01
-5.0000000000000000e+01 5.0000000000000000e+01
-5.0000000000000000e+01 5.0000000000000000e+01
ITEM: ATOMS id type x y z
191 1 32.8552 1.56099 -13.8386
190 1 31.9422 1.64498 -13.7238
187 1 32.0462 -0.829538 -14.0142
188 1 31.48 0.00580856 -13.9956
189 1 31.4309 0.960217 -14.1799
192 1 33.0389 1.90584 -14.6916
193 1 33.7399 1.90509 -15.3546
194 1 34.2977 2.62528 -14.9688
186 1 32.6307 -0.554433 -14.7288
185 1 33.2821 -0.131063 -15.3151
159 1 29.439 3.76035 -13.9935
195 1 33.3781 3.15474 -15.0084
158 1 29.6954 2.81598 -14.1689
155 1 31.527 2.2887 -15.1935
157 1 29.9194 2.95421 -15.145
156 1 30.6857 2.45701 -14.9274
196 1 32.8032 3.94207 -15.1163
197 1 33.5488 4.21866 -14.5776
154 1 31.6387 3.14338 -14.6739
181 1 30.1479 0.440622 -15.4875
182 1 30.9187 0.965385 -15.5832
180 1 29.7973 1.02633 -14.7769
183 1 31.7679 0.647697 -15.9351
162 1 30.5335 4.03645 -12.3709
184 1 32.6908 0.366481 -15.9251
160 1 29.2664 4.16273 -13.1619
161 1 30.1564 4.53735 -13.1661
153 1 32.0477 3.93349 -14.255
199 1 32.7045 5.38673 -13.8672
198 1 33.1744 4.45578 -13.7599
151 1 32.1516 5.69245 -14.8346
152 1 32.1476 4.76153 -14.8237
200 1 31.7511 5.6546 -13.9893
32 1 -26.5821 21.2955 -11.25
40 1 -21.9101 21.3701 -12.1486
39 1 -22.8822 21.3983 -12.0152
171 1 31.3264 2.79897 -11.2477
169 1 31.8129 1.2386 -11.4464
170 1 32.0058 2.08495 -11.2232
167 1 32.0987 0.791802 -12.6838
168 1 31.2605 0.814087 -12.1676
177 1 28.5909 1.0799 -13.9205
179 1 29.0183 0.757878 -15.4018
178 1 28.7817 1.45545 -14.7979
166 1 31.916 1.68147 -12.3571
164 1 31.7955 2.97954 -12.7259
163 1 31.3577 3.64133 -12.1089
33 1 -25.7935 21.7343 -11.4912
34 1 -25.8777 21.0843 -12.3017
35 1 -25.6158 20.2857 -12.7603
43 1 -21.8547 20.7727 -11.1803
37 1 -24.02 21.3373 -12.6162
38 1 -23.2569 20.7121 -12.5378
42 1 -22.3096 20.2985 -11.891
41 1 -21.7481 20.5416 -12.6596
29 1 -28.2756 22.7281 -11.1447
31 1 -26.9849 21.9177 -11.8483
30 1 -27.3322 22.5045 -11.1466
44 1 -21.5805 21.3889 -10.4928
172 1 30.3952 2.50946 -11.39
173 1 29.8731 2.06542 -12.133
175 1 29.4893 2.25153 -13.1306
174 1 30.4027 2.54768 -12.7727
165 1 32.5624 2.36092 -12.7121
176 1 28.7238 2.04882 -13.6908
36 1 -24.8263 20.9366 -12.8037
46 1 -20.7091 21.4124 -9.32811
28 1 -28.5312 22.4357 -10.2507
27 1 -28.3808 21.6322 -9.64745
45 1 -21.0606 22.0539 -10.0046
47 1 -20.9057 22.0907 -8.63654
24 1 -27.7597 21.4645 -7.77363
26 1 -27.5972 22.1071 -9.45676
25 1 -27.6301 21.5121 -8.67758
49 1 -21.3898 23.6959 -8.17638
48 1 -21.3304 22.7211 -8.0286
3 1 -23.2568 24.4435 -7.69642
2 1 -22.4653 23.8171 -7.8707
21 1 -29.5496 21.4331 -6.15498
20 1 -28.834 22.0475 -5.88412
22 1 -28.6948 21.0345 -6.4648
4 1 -23.8132 24.1288 -6.87923
5 1 -23.2454 23.3599 -6.915
1 1 -22.3708 24.5479 -8.46724
50 1 -21.9657 23.8365 -8.94795
23 1 -28.6337 21.2415 -7.38361
19 1 -28.923 22.1152 -6.82511
18 1 -28.2526 22.4372 -7.43785
6 1 -22.4353 23.755 -6.55722
7 1 -22.98 24.2887 -5.96946
8 1 -23.0041 25.0595 -5.42223
15 1 -25.844 23.6769 -6.93054
14 1 -25.6886 22.9724 -6.3164
13 1 -25.3419 22.7696 -5.3933
9 1 -23.7841 24.5494 -5.10612
10 1 -24.7085 24.7121 -5.12675
12 1 -25.8274 23.3721 -4.83925
11 1 -25.1389 23.848 -5.35511
17 1 -27.3264 22.6967 -7.52573
16 1 -26.5827 23.2342 -7.3838
ITEM: TIMESTEP
6000000
ITEM: NUMBER OF ATOMS
100
ITEM: BOX BOUNDS ff ff ff
-5.0000000000000000e+01 5.0000000000000000e+01
-5.0000000000000000e+01 5.0000000000000000e+01
-5.0000000000000000e+01 5.0000000000000000e+01
ITEM: ATOMS id type x y z
158 1 19.6324 -4.46511 -18.0853
157 1 20.4031 -4.51264 -18.6687
156 1 21.3431 -4.27293 -18.5169
159 1 19.7704 -3.71262 -17.4716
155 1 22.1636 -4.17596 -18.9874
162 1 19.0484 -2.91545 -15.9246
163 1 19.6618 -2.40824 -15.3525
160 1 18.8242 -3.78425 -17.1785
161 1 19.1894 -2.94762 -16.8951
152 1 23.5129 -2.7497 -17.1874
154 1 22.9423 -3.727 -18.6222
153 1 23.1342 -3.0806 -17.999
151 1 22.8459 -2.07843 -17.0505
200 1 23.1999 -1.66674 -16.1684
199 1 23.9626 -2.21217 -15.9998
164 1 20.2508 -1.69738 -15.473
165 1 21.0754 -2.21655 -15.3269
166 1 21.772 -1.84979 -15.8758
167 1 21.2564 -1.04846 -15.4104
198 1 23.7211 -2.15084 -15.0865
170 1 20.7051 -0.800085 -12.9428
169 1 20.9531 -0.229854 -13.7458
194 1 21.2552 -3.01362 -13.1859
168 1 21.3428 -0.467092 -14.6122
195 1 21.8819 -3.0757 -13.8118
197 1 22.9875 -2.81345 -14.9469
196 1 22.4407 -3.4811 -14.5475
171 1 20.3642 -1.66057 -13.1909
192 1 20.9601 -3.92864 -11.8212
193 1 21.5873 -3.32898 -12.3359
172 1 20.3909 -1.68717 -12.1876
173 1 19.869 -2.46164 -12.4373
189 1 22.9145 -4.41001 -10.5172
191 1 21.3318 -3.5767 -10.9791
190 1 21.9912 -4.31953 -10.7788
174 1 19.0998 -2.94476 -12.7268
175 1 19.1765 -3.1609 -11.7717
185 1 21.6095 -3.66649 -8.95706
188 1 22.4887 -5.10409 -9.93176
178 1 19.9725 -3.32123 -10.04
177 1 19.8853 -3.79727 -10.8734
176 1 20.0463 -2.95012 -11.3162
184 1 21.859 -3.02466 -9.69598
187 1 22.6363 -4.7299 -9.07068
186 1 22.2499 -4.21118 -8.36788
179 1 19.1412 -3.15668 -9.60717
181 1 20.1436 -2.75275 -8.3307
47 1 -21.4626 24.5862 -7.73583
46 1 -20.8402 23.9483 -8.07473
182 1 20.3217 -2.60394 -9.24855
183 1 21.0128 -2.69458 -9.90381
180 1 19.5693 -3.40929 -8.80806
50 1 -21.5246 24.4654 -10.0348
49 1 -20.7876 24.2374 -9.46498
5 1 -23.7268 23.171 -8.27997
4 1 -23.1493 22.5529 -8.69969
48 1 -21.3021 24.5484 -8.7483
45 1 -20.3181 24.6066 -8.4997
44 1 -19.5733 25.225 -8.42391
1 1 -22.3292 24.0457 -10.0608
3 1 -22.9795 23.1092 -9.46285
6 1 -24.4626 23.7846 -8.35997
7 1 -25.1088 23.4147 -7.72632
2 1 -22.0899 23.2015 -9.87352
36 1 -21.0035 24.3835 -6.77727
37 1 -20.9069 25.2982 -7.00112
10 1 -25.2348 21.3331 -7.03566
9 1 -24.7577 21.8604 -7.78929
8 1 -25.3957 22.5833 -7.93695
39 1 -21.2026 26.885 -6.21832
38 1 -21.2181 26.1656 -6.79682
43 1 -19.8194 25.9471 -7.73549
40 1 -20.3541 27.0274 -5.62616
42 1 -19.8488 26.2541 -6.83268
41 1 -19.5631 26.6341 -6.06266
32 1 -18.9635 22.6715 -5.61576
33 1 -18.8613 23.2345 -6.42045
34 1 -19.6401 23.5853 -6.86626
35 1 -20.579 23.4895 -6.92559
31 1 -19.4061 22.2955 -4.79736
30 1 -19.1128 23.1671 -4.41905
11 1 -24.4233 21.531 -6.58805
12 1 -25.0782 21.759 -5.83962
23 1 -23.1043 23.8938 -2.97677
22 1 -23.1041 22.9373 -2.90501
24 1 -22.1803 24.0188 -3.18707
20 1 -24.1778 23.3474 -3.63463
21 1 -23.8222 22.4869 -3.34107
26 1 -20.6759 24.6359 -3.59787
25 1 -21.4647 24.6798 -2.97828
17 1 -26.2995 23.4894 -4.06164
27 1 -20.3716 25.4231 -4.02725
28 1 -19.7763 24.7233 -4.30463
15 1 -26.0944 22.35 -5.32052
13 1 -25.6592 22.1763 -6.53596
14 1 -26.1953 21.6275 -6.01313
29 1 -19.8964 23.715 -4.35297
16 1 -26.4159 22.5511 -4.41635
18 1 -25.5919 23.7023 -4.63322
19 1 -24.9165 23.898 -3.93222
ITEM: TIMESTEP
6100000
ITEM: NUMBER OF ATOMS
100
ITEM: BOX BOUNDS ff ff ff
-5.0000000000000000e+01 5.0000000000000000e+01
-5.0000000000000000e+01 5.0000000000000000e+01
-5.0000000000000000e+01 5.0000000000000000e+01
ITEM: ATOMS id type x y z
159 1 22.0792 -5.02374 -0.305709
158 1 21.8756 -4.23453 0.365451
160 1 21.456 -5.70988 -0.627281
195 1 28.256 -5.71203 1.16743
193 1 28.51 -3.98119 1.96531
156 1 22.8824 -3.4886 1.20763
6 1 -36.2909 18.5326 0.90519
7 1 -36.0763 18.7576 -0.0873273
9 1 -35.7179 20.213 -0.75566
8 1 -36.2136 19.3369 -0.881272
10 1 -34.8147 20.0672 -0.376613
11 1 -34.1134 20.6211 -0.601373
12 1 -33.8148 20.6767 -1.50453
13 1 -33.4557 19.8579 -1.68131
14 1 -33.01 19.0329 -1.31855
182 1 26.6662 -8.23764 0.662158
181 1 26.3662 -8.44095 1.56099
188 1 29.6822 -6.0068 1.35113
189 1 30.0135 -5.76734 2.20953
190 1 29.314 -5.21218 2.05516
165 1 20.6005 -6.85342 2.05366
164 1 20.136 -7.26371 1.33242
161 1 22.1841 -6.1464 -0.214476
162 1 21.3109 -6.42496 0.191412
163 1 20.8692 -7.03715 0.759571
199 1 25.8315 -6.85834 2.45452
198 1 26.6901 -7.36419 2.57734
194 1 28.4517 -4.88303 1.50465
191 1 29.9538 -4.51248 1.90059
192 1 29.2325 -4.16673 1.3471
157 1 22.3055 -3.34834 0.474966
200 1 25.4642 -6.3611 1.69171
197 1 27.287 -6.8594 2.01691
196 1 27.4046 -5.91763 1.54895
155 1 23.5494 -3.74467 1.83792
154 1 24.4318 -4.00779 2.12117
4 1 -37.1069 17.3912 0.127142
5 1 -36.341 17.5244 0.773404
3 1 -37.9118 17.4924 0.622883
16 1 -32.2993 20.0163 -0.281161
17 1 -31.8909 19.5736 0.472519
15 1 -33.1539 19.657 -0.605553
177 1 24.6967 -7.40973 3.12643
180 1 25.4435 -8.39084 1.24716
179 1 25.5463 -7.48232 1.58686
176 1 24.2623 -7.71736 3.99839
184 1 28.0493 -8.35335 1.03424
185 1 28.8272 -7.78275 1.12204
183 1 27.3887 -7.6825 0.932701
187 1 29.0558 -6.11853 0.628221
186 1 28.5726 -6.94489 0.618199
166 1 20.9357 -7.56263 2.65065
167 1 21.1826 -8.00773 3.46181
151 1 24.5801 -6.69873 1.86052
153 1 24.711 -4.83514 1.69182
152 1 24.622 -5.72142 1.97911
2 1 -37.8612 16.8244 0.00799917
1 1 -37.8128 15.9129 0.316881
50 1 -37.8768 16.1555 1.25261
23 1 -32.8762 22.9018 3.14912
18 1 -32.6792 20.019 0.894048
21 1 -32.0751 22.085 1.78146
19 1 -32.7556 20.8981 1.18926
24 1 -32.8571 22.5518 4.02728
178 1 25.309 -7.72258 2.43445
175 1 24.3087 -7.44372 4.91221
174 1 24.1092 -6.53055 4.9412
173 1 23.4069 -6.88803 4.39794
171 1 21.726 -6.97986 5.39959
172 1 22.4242 -7.06311 4.75279
170 1 20.8628 -7.10031 5.85177
168 1 21.187 -7.55584 4.29489
169 1 20.6215 -7.68994 5.11939
48 1 -36.8491 17.5551 2.05623
49 1 -37.3984 16.9576 1.49278
46 1 -36.3455 18.3719 3.19886
47 1 -36.4133 18.3471 2.27183
45 1 -36.5819 17.8767 4.01352
22 1 -32.6543 22.7557 2.20068
32 1 -34.2612 21.3443 7.87397
31 1 -33.4831 21.6068 7.31506
33 1 -34.5582 21.3962 6.96201
20 1 -32.1923 21.6725 0.967487
30 1 -32.8656 20.9271 7.22853
29 1 -31.9168 20.9506 6.89355
25 1 -32.0744 22.0115 3.856
26 1 -31.9072 21.688 4.75296
27 1 -31.8893 22.1329 5.63828
43 1 -37.4776 18.9261 4.50348
44 1 -37.1518 18.0505 4.79234
35 1 -33.6789 20.2147 6.45101
42 1 -36.7532 19.4512 4.00332
41 1 -35.9267 19.324 4.53385
38 1 -34.938 19.8841 4.90619
36 1 -34.2731 19.887 5.66408
34 1 -34.6653 20.471 6.66324
28 1 -31.9305 21.8939 6.60449
39 1 -34.764 19.6362 4.02186
37 1 -35.2202 19.818 5.85608
40 1 -35.6629 19.4157 3.62733
ITEM: TIMESTEP
6200000
ITEM: NUMBER OF ATOMS
100
ITEM: BOX BOUNDS ff ff ff
-5.0000000000000000e+01 5.0000000000000000e+01
-5.0000000000000000e+01 5.0000000000000000e+01
-5.0000000000000000e+01 5.0000000000000000e+01
ITEM: ATOMS id type x y z
160 1 30.8307 0.178579 -14.2007
157 1 30.9443 0.854777 -13.1579
161 1 31.132 0.793015 -14.905
162 1 30.9178 1.71003 -14.6502
163 1 31.1914 2.4071 -14.1125
159 1 29.9122 0.0536357 -13.8017
156 1 31.4446 1.71613 -13.0496
158 1 30.4557 0.00163476 -12.9593
155 1 30.5585 2.23195 -12.95
154 1 29.8042 2.75669 -13.3992
168 1 31.2553 2.57992 -11.3442
164 1 32.122 2.86224 -14.2719
165 1 31.7244 3.21394 -13.3732
167 1 31.7956 2.32047 -12.128
197 1 31.1281 4.9728 -11.5612
198 1 30.4563 4.60873 -10.9892
196 1 31.8544 5.51445 -11.4901
190 1 34.943 7.33049 -10.4937
189 1 34.8953 7.24379 -9.58984
188 1 34.4157 8.14967 -9.4395
153 1 29.3345 3.36959 -12.8504
169 1 31.0797 2.8195 -10.4607
166 1 31.3693 3.14027 -12.4605
151 1 28.5326 4.17038 -11.8871
152 1 29.4837 4.05457 -12.1214
170 1 31.7169 3.05118 -9.79986
171 1 31.4916 3.21459 -8.87632
199 1 29.5358 4.522 -10.5687
200 1 28.8159 4.01617 -10.9992
194 1 33.3367 6.37971 -12.3842
195 1 32.4949 5.8909 -12.1255
191 1 34.3375 6.6388 -10.7017
192 1 33.8642 7.29306 -11.2509
186 1 33.8582 7.07069 -9.81497
187 1 33.5113 8.02937 -9.76716
173 1 31.0814 3.77018 -7.56277
172 1 31.9376 3.47694 -8.01146
180 1 32.3476 5.40857 -7.2882
193 1 33.9221 7.11337 -12.2684
181 1 32.1379 6.26187 -7.77386
185 1 33.1095 6.75345 -9.25114
183 1 32.5151 5.30858 -8.28672
184 1 32.919 5.92631 -8.86233
174 1 30.2676 3.36412 -7.17386
175 1 30.62 3.10019 -6.29822
176 1 31.4839 2.83403 -6.15427
179 1 32.3034 4.70426 -6.61171
178 1 32.4573 3.7891 -6.86698
177 1 32.3441 2.91724 -6.4815
182 1 31.7112 5.76032 -8.43487
17 1 -27.275 17.6141 -2.46263
16 1 -26.6017 18.12 -2.08829
18 1 -27.9836 17.6155 -3.12451
19 1 -27.8117 18.4592 -2.77766
20 1 -28.0078 19.0953 -3.3395
12 1 -24.8563 20.3192 -2.77402
4 1 -24.6274 18.3164 1.40132
14 1 -25.9532 19.2274 -3.40116
15 1 -26.5113 18.6149 -2.9157
10 1 -23.7113 20.0702 -2.11449
9 1 -23.8056 19.5209 -1.32048
11 1 -24.5035 19.6425 -2.21081
8 1 -24.5461 19.1687 -0.854893
7 1 -24.4718 19.1243 0.0583393
6 1 -25.3361 18.8395 0.263475
5 1 -25.1327 17.8986 0.62484
27 1 -27.0902 19.4756 0.56176
28 1 -27.9723 19.8845 0.617424
26 1 -26.9998 18.9198 -0.234741
25 1 -26.6975 19.6665 -0.749204
24 1 -27.0847 19.5907 -1.65624
23 1 -27.5813 19.5817 -2.51191
21 1 -28.2274 19.9126 -3.73597
22 1 -28.1009 20.381 -2.90178
3 1 -25.185 17.6003 1.66925
2 1 -24.4061 17.2112 2.15548
13 1 -25.5394 19.6619 -2.69543
31 1 -29.4283 18.609 0.95566
30 1 -29.1943 19.3326 0.370678
29 1 -28.3549 19.3698 -0.0858858
49 1 -25.4441 16.1616 4.06885
1 1 -24.1015 16.4997 2.67672
50 1 -24.8546 16.3557 3.21408
32 1 -29.2163 18.4184 1.86219
33 1 -29.4162 18.687 2.81904
34 1 -30.2414 18.2432 2.88546
48 1 -25.7871 16.8156 3.4979
47 1 -25.9177 17.7053 3.69082
46 1 -25.9787 18.2852 2.94916
35 1 -30.8811 18.9371 2.72157
36 1 -30.4928 18.9786 3.63056
44 1 -27.4525 17.5153 3.37038
45 1 -26.6172 17.551 2.94253
38 1 -29.0185 19.6158 4.60072
37 1 -29.7641 19.1222 4.23263
41 1 -28.2383 19.0406 4.34762
43 1 -28.1967 17.1597 3.76667
42 1 -28.3089 18.0766 4.15524
39 1 -28.3807 20.1137 4.0741
40 1 -28.0533 19.7409 4.95882
ITEM: TIMESTEP
6300000
ITEM: NUMBER OF ATOMS
100
ITEM: BOX BOUNDS ff ff ff
-5.0000000000000000e+01 5.0000000000000000e+01
-5.0000000000000000e+01 5.0000000000000000e+01
-5.0000000000000000e+01 5.0000000000000000e+01
ITEM: ATOMS id type x y z
196 1 25.7236 9.18266 -10.5376
197 1 26.1691 8.79235 -11.3313
198 1 26.065 7.95006 -10.8199
199 1 26.3929 8.13073 -9.98593
200 1 26.7813 9.14506 -10.1516
152 1 28.1673 9.4632 -11.3714
151 1 27.6858 9.2066 -10.5156
153 1 28.1404 10.238 -11.924
154 1 28.7113 10.0632 -12.7188
155 1 29.5511 9.84125 -12.2349
194 1 25.4756 9.46302 -8.76973
195 1 25.617 9.68028 -9.69296
157 1 29.741 9.88965 -10.5138
156 1 29.5519 9.41355 -11.3548
158 1 30.0368 10.6491 -11.0594
172 1 33.9685 6.57457 -5.95691
193 1 25.7465 8.71108 -9.28673
171 1 34.0073 6.156 -6.84283
192 1 26.3981 8.9192 -8.65541
160 1 31.305 10.3826 -11.2414
161 1 31.6859 10.1283 -10.373
159 1 30.7162 10.8364 -11.7519
189 1 26.4591 7.66434 -7.20996
188 1 26.2565 6.77746 -6.821
174 1 32.8594 5.46225 -6.32924
173 1 33.4543 5.79313 -5.63557
191 1 26.6319 8.91999 -7.73059
190 1 26.7836 8.04247 -8.06073
164 1 32.606 8.60174 -8.41951
169 1 35.1953 6.39819 -7.33793
163 1 31.9567 9.06015 -8.95097
170 1 34.8543 5.73732 -6.7418
162 1 32.1879 9.74172 -9.58549
168 1 34.8783 7.24413 -7.50022
167 1 34.0566 7.66327 -7.8311
33 1 -35.1624 2.98913 -5.00397
32 1 -35.8428 3.35568 -4.38115
35 1 -34.4517 3.30056 -4.10542
34 1 -34.8661 3.86743 -4.78365
36 1 -33.4498 3.17467 -4.28778
183 1 29.7532 6.06796 -6.09879
182 1 30.2928 6.45566 -6.90819
179 1 31.0751 5.0082 -7.30874
27 1 -33.8465 6.88953 -4.27153
30 1 -34.8195 4.65715 -3.6919
31 1 -35.5223 4.02552 -3.7246
28 1 -34.086 5.87016 -4.49025
186 1 27.473 5.88106 -5.58009
187 1 26.8175 6.21162 -6.29322
185 1 28.3977 6.00864 -5.31287
181 1 30.7764 6.0238 -7.5956
178 1 31.7297 4.31215 -7.49029
177 1 32.5583 3.78406 -7.52898
26 1 -33.9746 6.41348 -3.36767
29 1 -34.0135 4.91984 -4.21626
47 1 -32.8156 7.743 -4.45493
176 1 32.2752 4.16188 -6.49459
175 1 32.0523 5.07961 -6.71333
165 1 33.4312 8.89339 -7.97278
166 1 33.9262 8.41651 -7.15178
2 1 -34.8804 9.53045 -6.1097
1 1 -34.5086 8.64072 -5.92171
3 1 -34.4747 10.2778 -6.51504
50 1 -33.5494 8.648 -5.67935
4 1 -34.9119 11.0989 -6.4784
5 1 -35.2634 11.5511 -5.65657
37 1 -32.9959 2.64944 -3.66517
38 1 -33.374 2.94081 -2.72918
184 1 29.1395 5.52778 -5.59421
180 1 30.1789 5.27549 -7.42132
44 1 -32.9554 6.35847 -3.2784
45 1 -32.611 7.27111 -3.42414
24 1 -34.6089 6.69322 -2.02314
25 1 -34.4327 5.98734 -2.62089
23 1 -33.6089 6.69067 -1.87539
46 1 -32.2228 6.99028 -4.24222
22 1 -34.0004 6.04177 -1.23103
20 1 -35.7586 6.00557 -1.0938
21 1 -34.8789 6.32171 -0.903729
48 1 -32.4466 8.53787 -5.00186
49 1 -33.3238 8.93567 -4.7271
7 1 -36.3446 9.98003 -5.98022
8 1 -36.8418 10.7328 -5.68113
9 1 -36.5647 10.1485 -4.98021
10 1 -36.1444 10.2547 -4.13817
11 1 -36.5947 9.76596 -3.46411
6 1 -35.7522 10.7612 -5.99836
40 1 -33.2635 4.41419 -1.99747
39 1 -33.5162 3.53161 -2.05429
42 1 -33.3559 4.4893 -3.41802
41 1 -33.9389 4.52439 -2.67483
43 1 -32.8815 5.35258 -3.26853
19 1 -36.2666 6.73788 -1.48281
15 1 -36.1401 7.74724 -1.93073
14 1 -37.064 8.09533 -1.87684
18 1 -36.8445 7.11501 -0.870737
12 1 -36.7867 8.8848 -3.00443
13 1 -36.8688 9.08988 -2.06854
17 1 -36.3635 7.93635 -0.821875
16 1 -35.6635 8.37652 -1.36118
ITEM: TIMESTEP
6400000
ITEM: NUMBER OF ATOMS
100
ITEM: BOX BOUNDS ff ff ff
-5.0000000000000000e+01 5.0000000000000000e+01
-5.0000000000000000e+01 5.0000000000000000e+01
-5.0000000000000000e+01 5.0000000000000000e+01
ITEM: ATOMS id type x y z
158 1 26.9516 23.8038 -9.92603
157 1 26.0133 23.6829 -10.0991
160 1 28.5354 23.3315 -10.6893
159 1 27.5877 23.4563 -10.575
169 1 29.7161 18.5395 -10.3889
171 1 30.4682 17.7486 -9.80302
170 1 30.0663 17.6531 -10.7342
173 1 32.0797 18.437 -10.4524
174 1 32.7663 17.8461 -10.0993
175 1 33.2735 17.3938 -9.4767
165 1 27.5696 19.5357 -11.7902
164 1 27.6018 20.3392 -11.2399
168 1 28.9232 18.4752 -9.84273
156 1 25.8908 23.0068 -9.41557
155 1 25.9406 22.0661 -9.65862
163 1 27.8772 21.1707 -10.7801
162 1 28.4414 21.6566 -11.3914
161 1 28.8444 22.5633 -11.2098
190 1 26.5124 18.9503 -7.91824
189 1 27.0787 18.9696 -8.6793
188 1 27.8942 19.1398 -9.22956
172 1 31.3501 17.9605 -9.96666
191 1 25.5666 18.9059 -7.68284
186 1 28.7979 20.204 -8.49466
187 1 28.7995 19.5459 -9.23941
176 1 33.0916 18.1149 -8.84761
195 1 22.9366 19.5048 -7.32709
193 1 24.0575 18.7288 -7.58166
194 1 23.1258 18.6515 -7.72389
166 1 28.3163 19.5147 -11.2311
167 1 28.6219 18.782 -10.7139
196 1 22.2372 20.1336 -7.13805
197 1 22.8718 20.7372 -7.47928
152 1 23.8792 21.3966 -9.24538
154 1 25.361 21.3377 -9.79406
153 1 24.8237 21.6129 -9.10937
192 1 24.8022 18.5916 -8.23441
182 1 30.3864 19.297 -7.42735
180 1 30.7725 18.2261 -7.57471
181 1 30.2721 18.6015 -6.82643
179 1 31.4354 17.6258 -7.92708
177 1 32.3329 17.5552 -9.02424
178 1 32.0428 17.0124 -8.21884
185 1 28.5056 20.7295 -7.71176
183 1 29.4795 19.3704 -7.11957
184 1 28.7379 19.9272 -7.33074
198 1 22.0627 21.0906 -7.66988
199 1 22.6059 21.4666 -8.42686
151 1 22.9936 21.4205 -9.58975
200 1 22.6733 20.647 -9.07745
31 1 -21.5057 15.5378 6.38124
30 1 -21.7378 15.2365 5.52328
24 1 -19.8084 14.7219 4.41015
26 1 -20.0024 15.9026 4.1429
27 1 -20.7101 16.462 3.78175
23 1 -19.1584 15.0388 5.04719
25 1 -20.0747 15.1521 3.5712
21 1 -19.1449 14.5077 5.98817
35 1 -23.4195 17.4814 5.3317
33 1 -22.4916 16.7809 6.07616
28 1 -21.584 16.4404 4.36027
29 1 -21.5883 16.1626 5.25399
20 1 -18.3081 14.6749 5.62597
19 1 -17.5262 14.7733 6.08241
32 1 -22.2522 16.0305 6.61242
39 1 -23.5698 15.0846 7.67962
37 1 -23.5477 16.2852 6.46794
38 1 -23.4145 15.3579 6.7559
22 1 -19.4223 15.4627 5.91567
36 1 -23.8806 16.7784 5.69539
34 1 -22.5165 17.7131 5.56252
18 1 -16.5832 14.7381 6.09395
17 1 -15.8645 14.361 6.5967
41 1 -22.5957 14.1828 7.53848
40 1 -23.5044 14.2922 7.1605
46 1 -19.2368 14.1155 7.68379
42 1 -21.8135 14.3504 7.01061
43 1 -21.3932 14.6828 7.8637
44 1 -20.7454 14.2922 7.20252
45 1 -19.8805 14.634 7.23591
16 1 -16.1543 13.9182 7.38871
15 1 -16.638 14.7653 7.29297
48 1 -19.7589 14.9175 9.09041
47 1 -19.5078 14.9406 8.15091
14 1 -16.9429 15.6215 7.22259
12 1 -17.9561 16.514 7.58476
13 1 -17.7557 15.4906 7.65348
11 1 -18.2499 16.2532 8.45153
50 1 -20.8965 16.1136 9.2441
49 1 -20.5699 15.3741 8.82186
1 1 -21.5367 16.5558 9.78355
8 1 -19.592 17.6536 8.63722
10 1 -18.9117 16.2319 7.72243
9 1 -19.2562 17.1048 7.87304
2 1 -20.8781 16.3543 10.4101
3 1 -20.0071 16.647 10.2159
6 1 -20.244 18.4814 9.36934
7 1 -20.5337 17.61 8.98233
4 1 -19.3401 17.1283 9.84943
5 1 -19.9026 17.9022 10.0856
ITEM: TIMESTEP
6500000
ITEM: NUMBER OF ATOMS
100
ITEM: BOX BOUNDS ff ff ff
-5.0000000000000000e+01 5.0000000000000000e+01
-5.0000000000000000e+01 5.0000000000000000e+01
-5.0000000000000000e+01 5.0000000000000000e+01
ITEM: ATOMS id type x y z
184 1 39.7246 22.7782 -9.83355
185 1 39.2378 23.0443 -10.6183
182 1 40.6291 23.701 -9.86075
186 1 38.5821 23.5104 -10.1329
183 1 40.5091 22.8946 -10.3783
181 1 40.1053 24.2833 -10.2953
187 1 38.249 22.6555 -9.82619
188 1 37.3694 22.5157 -10.1909
180 1 39.6982 25.0362 -9.82572
179 1 39.0775 25.6273 -9.24477
190 1 36.7512 24.2433 -10.6094
189 1 36.7093 23.2974 -10.4631
178 1 39.7238 25.9254 -8.54261
177 1 40.4789 25.4082 -8.29614
197 1 36.9157 23.3949 -7.17105
191 1 36.1355 24.2341 -9.77549
192 1 35.3842 24.5339 -9.21933
193 1 35.2292 24.0878 -8.36131
194 1 35.6439 23.2569 -7.87173
176 1 40.9531 25.0765 -7.54302
175 1 41.0051 25.3646 -6.65235
174 1 40.4217 24.5862 -6.61638
172 1 39.1326 23.8537 -5.78341
196 1 37.0841 23.7543 -8.12777
198 1 37.7843 22.858 -7.09368
199 1 37.946 22.8285 -6.13263
195 1 36.2966 23.39 -8.53536
171 1 38.2787 23.6705 -5.32098
169 1 38.417 24.6741 -3.9295
173 1 39.5614 24.4987 -6.25787
170 1 38.6205 24.3626 -4.77471
200 1 37.9502 22.0539 -5.50247
151 1 38.5865 22.4068 -4.82654
152 1 37.9781 21.9158 -4.22199
153 1 38.5874 21.556 -3.5828
167 1 36.9096 24.7551 -4.30852
168 1 37.5065 24.4019 -3.63294
154 1 38.2111 20.7769 -3.15114
155 1 37.626 21.4429 -2.9354
156 1 37.696 22.3473 -2.50582
159 1 38.2718 22.7791 -1.10487
158 1 38.9291 22.3378 -1.75957
157 1 38.6818 21.9728 -2.62867
166 1 36.3905 23.8955 -4.39326
163 1 37.3955 23.3765 -1.98186
160 1 38.7599 23.4195 -1.70509
162 1 38.0728 23.9638 -2.4234
161 1 38.9019 24.3074 -1.98752
165 1 36.912 23.4737 -3.68181
164 1 36.7418 23.4795 -2.71413
17 1 -13.2194 9.72772 2.0505
18 1 -12.9361 8.90074 2.39159
14 1 -13.5526 11.8844 2.80273
15 1 -12.9967 11.0559 2.5455
13 1 -13.8137 11.2064 3.41245
16 1 -13.4378 10.2332 2.83852
19 1 -12.0171 8.5215 2.36573
20 1 -11.1485 8.84576 2.02948
12 1 -14.6325 11.5844 3.81027
11 1 -14.7768 12.4991 3.96159
21 1 -10.5217 8.29151 2.56253
22 1 -10.2639 8.26282 3.42472
23 1 -10.4892 8.84875 4.16314
24 1 -11.2341 8.48703 4.61471
25 1 -11.7837 8.51777 5.4457
9 1 -14.4537 14.0181 4.83811
10 1 -14.7918 13.183 4.59595
27 1 -12.7956 9.59681 6.01283
26 1 -12.5695 9.10955 5.22082
8 1 -13.8067 14.4698 5.28663
7 1 -13.8515 15.1893 5.92598
29 1 -12.4232 8.13883 6.84602
28 1 -12.2521 8.88598 6.34107
30 1 -12.4815 9.00665 7.27159
41 1 -15.0481 10.7773 11.265
6 1 -14.0253 14.6386 6.76693
5 1 -13.2412 13.9909 6.86737
4 1 -13.6822 13.4829 7.55851
31 1 -13.2734 9.46058 7.69079
35 1 -13.289 8.56054 9.92524
36 1 -13.8154 8.02766 9.22004
33 1 -13.4629 9.81963 9.01119
42 1 -15.6055 11.0022 12.0696
43 1 -16.0087 11.0204 12.8863
40 1 -14.6319 10.5797 10.3564
39 1 -14.9807 9.66294 10.5172
46 1 -14.7054 12.1313 12.9117
45 1 -15.5766 11.8906 13.3083
44 1 -16.5131 11.6544 13.4569
48 1 -15.1434 12.7173 11.442
2 1 -14.1248 12.7182 9.25175
3 1 -13.8221 13.1168 8.43032
32 1 -13.8143 9.17651 8.41929
34 1 -13.6117 9.48211 9.90585
38 1 -14.4517 8.86346 10.3261
37 1 -14.6586 8.25298 9.60633
47 1 -15.3905 12.3028 12.2663
49 1 -15.6395 12.2955 10.7287
50 1 -14.7416 12.0718 10.3686
1 1 -14.0544 12.8141 10.1958
ITEM: TIMESTEP
6600000
ITEM: NUMBER OF ATOMS
100
ITEM: BOX BOUNDS ff ff ff
-5.0000000000000000e+01 5.0000000000000000e+01
-5.0000000000000000e+01 5.0000000000000000e+01
-5.0000000000000000e+01 5.0000000000000000e+01
ITEM: ATOMS id type x y z
183 1 44.5194 29.4026 -18.1212
184 1 44.8171 29.1895 -19.0274
181 1 44.193 29.4383 -17.0338
186 1 45.9875 28.4613 -18.5951
189 1 45.8352 27.0966 -16.5315
188 1 45.9969 27.3279 -17.3991
190 1 45.3668 27.4159 -15.6775
185 1 45.5655 28.7166 -19.3689
187 1 46.1403 27.46 -18.3518
182 1 44.2735 28.6917 -17.5902
180 1 44.7716 30.1228 -16.8481
179 1 44.8575 31.1256 -17.0852
178 1 45.3032 31.8953 -16.751
156 1 43.1315 24.9494 -15.9631
157 1 43.4755 24.855 -15.0766
153 1 42.4448 25.9248 -15.3342
154 1 43.0297 26.0551 -16.083
155 1 43.5315 25.4488 -16.659
196 1 43.9846 29.192 -14.157
162 1 46.3022 24.349 -16.4009
195 1 43.9973 28.9774 -15.1095
194 1 43.1103 29.2167 -15.4524
191 1 44.4743 27.811 -15.9029
192 1 44.5676 28.8053 -15.9702
166 1 47.5732 26.4947 -14.8322
176 1 46.2555 31.2428 -15.1724
177 1 45.8521 31.7312 -15.9635
152 1 41.7599 26.3432 -14.7495
200 1 41.2839 27.2832 -14.8773
158 1 44.123 24.2033 -15.4184
159 1 44.3407 23.3245 -15.0246
151 1 41.4322 26.9811 -14.0081
197 1 43.3164 28.532 -14.4755
198 1 42.3977 28.2808 -14.1597
160 1 45.2747 23.5542 -15.1645
193 1 43.6294 28.9783 -16.2574
163 1 46.3866 25.2932 -16.0853
161 1 45.9888 24.081 -15.4963
164 1 46.2514 26.1893 -15.8624
165 1 46.6197 26.5136 -15.0408
167 1 47.6188 25.7991 -14.1696
168 1 46.7757 26.2555 -13.8346
170 1 46.5581 28.2079 -13.7438
169 1 46.6001 27.2379 -13.8798
172 1 47.9061 28.6061 -15.0362
171 1 47.1287 28.5367 -14.4631
175 1 47.1506 30.7485 -15.2358
174 1 47.2878 30.1338 -15.8848
199 1 41.4767 27.9798 -14.2496
173 1 47.6029 29.2398 -15.6689
9 1 -13.6705 5.10682 1.04637
10 1 -14.0498 4.88893 1.87642
11 1 -14.0022 4.75823 2.88506
7 1 -13.5033 6.23515 0.234007
8 1 -14.2279 5.72004 0.618583
5 1 -13.6448 7.98388 0.601441
6 1 -13.203 7.17987 0.358321
4 1 -14.125 8.71529 0.0902202
13 1 -12.9956 4.55226 3.40359
12 1 -13.7008 4.99231 3.82737
14 1 -12.9652 4.1157 4.24295
50 1 -15.3842 8.70585 2.66706
1 1 -14.7749 9.56236 2.50008
3 1 -14.4123 9.4718 0.628025
2 1 -14.6346 9.20425 1.57414
17 1 -13.5502 4.13162 5.58525
18 1 -14.0319 3.93135 4.83251
16 1 -12.7367 4.07032 6.07247
15 1 -12.5748 4.29965 5.11973
48 1 -14.8664 7.7025 2.16057
49 1 -15.6054 8.20909 1.78312
44 1 -13.21 8.02092 3.81536
47 1 -14.0258 7.97109 2.5337
46 1 -14.7507 7.91468 3.28953
45 1 -14.0033 7.55453 3.71541
42 1 -12.5963 9.01499 5.08623
43 1 -12.8722 8.1009 4.73559
41 1 -12.3056 9.09212 5.96962
19 1 -14.8008 4.13453 5.46455
24 1 -14.7902 2.72263 7.13873
23 1 -15.3315 2.65359 6.35911
20 1 -15.095 3.68298 4.72039
21 1 -15.186 2.78213 4.90957
27 1 -14.4336 5.55599 7.19307
28 1 -15.4902 5.55406 7.3832
29 1 -16.2033 5.966 6.8792
31 1 -15.7896 6.96921 6.13556
30 1 -16.0125 6.90409 7.1038
33 1 -16.2268 8.39861 5.15479
32 1 -16.0703 7.53142 5.46701
34 1 -16.4662 8.81467 6.02236
36 1 -15.0444 9.30509 6.94472
35 1 -15.6761 8.77319 6.51626
40 1 -12.9763 8.51462 6.34175
39 1 -13.4325 7.79351 5.87138
38 1 -13.8942 8.60975 5.63849
37 1 -14.1462 8.99187 6.48006
22 1 -15.5995 2.2456 5.56917
26 1 -14.912 4.63371 7.09702
25 1 -14.5515 3.66222 7.14956
ITEM: TIMESTEP
6700000
ITEM: NUMBER OF ATOMS
100
ITEM: BOX BOUNDS ff ff ff
-5.0000000000000000e+01 5.0000000000000000e+01
-5.0000000000000000e+01 5.0000000000000000e+01
-5.0000000000000000e+01 5.0000000000000000e+01
ITEM: ATOMS id type x y z
25 1 -2.63292 6.47626 -16.6263
27 1 -3.21978 4.7047 -16.9697
26 1 -2.87117 5.52441 -16.5849
28 1 -3.97281 4.75813 -16.4318
24 1 -2.84136 7.43856 -16.3142
22 1 -3.45041 7.44898 -15.0736
23 1 -3.72849 7.5074 -15.9405
31 1 -4.71617 5.51513 -14.6937
30 1 -5.05651 4.65868 -15.1222
29 1 -4.14521 4.79928 -15.4688
21 1 -2.50194 7.50953 -14.8591
20 1 -1.68733 7.12705 -15.1944
19 1 -0.961272 6.55431 -14.9712
33 1 -5.33373 6.3745 -13.3306
32 1 -4.65796 5.86474 -13.8049
17 1 -0.715236 5.88609 -14.0693
18 1 -0.332218 5.73584 -14.9603
16 1 -1.35668 6.28202 -13.4431
40 1 -7.28295 3.4082 -11.8316
41 1 -6.96037 3.20722 -10.9957
42 1 -7.38491 2.69415 -10.3093
43 1 -7.99688 1.83666 -10.2959
35 1 -5.77772 5.02586 -13.4192
36 1 -6.06821 4.68671 -12.6077
34 1 -6.14507 5.8686 -13.0277
44 1 -7.49848 1.34945 -9.65969
14 1 -2.5687 6.63902 -12.3592
15 1 -2.2031 6.49744 -13.227
10 1 -2.7491 6.11684 -10.3851
11 1 -2.16164 5.33293 -10.2476
161 1 44.7117 27.223 -11.189
160 1 45.16 27.6273 -10.4481
159 1 45.614 28.465 -10.5054
158 1 46.1169 27.781 -10.0934
38 1 -6.51822 3.17458 -12.7135
39 1 -6.84049 2.54192 -12.0721
37 1 -6.26497 3.96975 -13.158
46 1 -6.46988 2.07373 -9.80111
45 1 -6.5745 1.1374 -9.63536
47 1 -6.35121 2.36724 -8.92543
48 1 -5.98268 2.97497 -9.52466
49 1 -5.61588 3.62614 -9.00964
13 1 -2.12823 5.9936 -11.6835
50 1 -4.72223 3.72378 -8.75675
7 1 -4.95425 6.6309 -9.46798
8 1 -4.55508 6.58114 -10.3519
9 1 -3.68767 6.11881 -10.2621
12 1 -2.01463 5.19314 -11.1525
170 1 47.5631 23.2463 -8.69038
168 1 46.4903 23.1282 -9.39594
167 1 46.6912 23.9034 -9.94803
162 1 44.6105 26.2468 -11.4006
163 1 44.6495 25.2474 -11.3202
164 1 45.3414 25.0337 -10.6718
165 1 46.1248 24.7309 -11.0334
157 1 45.888 28.4254 -9.38141
156 1 46.1454 28.3596 -8.48742
155 1 46.8154 28.9207 -8.94145
198 1 48.9158 31.6188 -7.61948
3 1 -4.19664 4.56009 -6.96583
1 1 -4.16713 4.42812 -8.58166
2 1 -4.63574 4.21868 -7.74303
5 1 -3.87949 5.87508 -8.2008
6 1 -4.32487 6.47698 -8.74796
4 1 -3.89492 5.42484 -7.38437
171 1 48.1313 22.6705 -8.13771
172 1 48.3895 23.1289 -7.37842
169 1 47.4087 23.2782 -9.66506
166 1 46.4791 23.8103 -10.8974
154 1 47.6056 28.4521 -8.99322
152 1 48.9626 28.4688 -7.77776
153 1 48.0513 28.6172 -8.05579
200 1 49.1596 30.2869 -7.53896
151 1 49.3665 29.3488 -7.58317
199 1 48.5293 30.8322 -8.04862
196 1 48.7347 30.6699 -6.03476
197 1 48.9936 31.3208 -6.74448
173 1 49.0062 23.5893 -6.69336
174 1 49.1585 23.5106 -5.75197
175 1 48.8291 24.398 -5.66058
194 1 48.0293 31.3475 -6.10853
195 1 47.8175 30.4052 -6.11247
178 1 48.6605 26.1582 -5.08479
177 1 48.082 25.3641 -5.09407
176 1 48.7963 25.2852 -5.73068
179 1 49.0439 26.9393 -5.43097
182 1 48.2238 27.8892 -3.26754
193 1 47.7007 31.7997 -5.3079
192 1 48.1288 30.9272 -5.11288
180 1 49.11 27.6782 -4.72901
181 1 48.3356 27.4387 -4.13333
183 1 47.8737 28.8314 -3.32969
184 1 47.6732 29.5057 -2.73632
186 1 48.501 30.1799 -1.99942
185 1 47.5979 29.9769 -1.88559
187 1 49.4423 30.2186 -1.93277
190 1 48.5255 30.153 -3.89412
189 1 48.9276 29.7443 -3.15863
191 1 47.8236 30.5821 -4.26974
188 1 49.0684 30.6278 -2.77399
ITEM: TIMESTEP
6800000
ITEM: NUMBER OF ATOMS
100
ITEM: BOX BOUNDS ff ff ff
-5.0000000000000000e+01 5.0000000000000000e+01
-5.0000000000000000e+01 5.0000000000000000e+01
-5.0000000000000000e+01 5.0000000000000000e+01
ITEM: ATOMS id type x y z
12 1 -3.22152 4.61999 -24.5741
11 1 -3.39478 5.52995 -24.3832
14 1 -2.80482 3.63334 -24.0126
13 1 -2.77623 3.78591 -24.905
22 1 1.20465 4.12683 -23.13
23 1 0.65195 3.99043 -22.2709
9 1 -2.5396 4.52214 -23.1015
8 1 -2.58771 5.27089 -22.479
7 1 -1.82971 5.85506 -22.7569
6 1 -2.1347 6.7243 -22.644
10 1 -3.06809 5.24106 -23.5449
26 1 -0.937443 5.37032 -20.97
27 1 -0.0269303 5.65048 -20.7878
25 1 -0.523562 4.49452 -20.9734
24 1 0.305461 4.21363 -21.367
15 1 -2.03287 3.22901 -23.7291
16 1 -1.30962 2.85294 -24.3424
17 1 -1.26241 2.44564 -23.4372
18 1 -0.801921 1.93323 -22.7717
21 1 0.355257 3.73049 -23.3519
20 1 0.190092 2.79942 -23.3221
19 1 0.022198 2.41842 -22.5037
5 1 -2.44874 7.61022 -22.4639
4 1 -1.67619 7.56688 -21.9419
28 1 0.812856 5.59515 -20.3462
30 1 0.37226 4.70464 -19.6166
29 1 1.14523 5.2811 -19.4837
31 1 0.0534788 4.48253 -18.6996
3 1 -1.08364 6.82628 -21.9411
2 1 -0.925095 6.77793 -21.03
33 1 0.893992 4.32379 -17.9915
32 1 0.551627 3.70489 -18.5975
1 1 0.00459921 6.92154 -20.9411
48 1 -0.48634 8.19645 -19.8125
50 1 -0.0276334 7.84675 -20.6344
49 1 -1.02846 8.03051 -20.5792
47 1 -1.34107 8.23065 -19.3918
34 1 0.251597 4.48807 -17.2969
35 1 -0.248555 3.90122 -16.7331
42 1 -3.72655 6.33606 -17.2207
44 1 -2.13182 7.08768 -17.9034
45 1 -2.6487 7.27631 -18.7476
46 1 -1.78151 7.3657 -19.1111
38 1 -1.67399 4.93647 -17.4868
37 1 -1.44586 5.2763 -16.6484
39 1 -2.61325 4.63106 -17.4792
40 1 -3.32239 5.08298 -16.9958
36 1 -0.597836 4.85993 -16.7249
43 1 -2.92854 6.80743 -17.518
41 1 -4.2486 5.4772 -17.2694
166 1 40.3927 30.6567 -4.88447
165 1 40.8606 30.5704 -4.08048
167 1 40.893 30.0252 -5.38086
171 1 40.6516 28.3243 -6.12934
168 1 40.607 29.6539 -4.51045
170 1 41.503 28.4562 -5.65819
169 1 40.9279 28.8586 -4.95021
181 1 38.2713 26.8037 -2.07977
182 1 38.562 26.229 -1.38086
176 1 39.1868 25.9539 -5.14009
180 1 38.9358 27.4491 -2.70507
178 1 37.9645 26.7532 -4.22278
177 1 38.9153 26.457 -4.35071
174 1 39.7717 27.4857 -5.56903
175 1 39.8075 26.5324 -5.48021
173 1 39.5353 27.5589 -6.50507
172 1 40.4659 27.4424 -6.59317
163 1 40.4442 30.4027 -3.10305
164 1 41.3316 30.7311 -3.2942
184 1 40.0944 25.5209 -1.60761
183 1 39.5714 26.2487 -1.32536
186 1 40.2387 24.3733 -1.6436
179 1 38.3794 26.9739 -3.34982
153 1 44.6208 25.9988 -2.70559
155 1 44.6155 27.4804 -2.71402
162 1 40.9178 29.8044 -2.51466
161 1 41.6385 30.2944 -2.03177
160 1 42.5211 29.8391 -1.72847
159 1 42.6432 29.4433 -2.52373
158 1 42.9475 28.6627 -2.98232
156 1 43.7828 27.3328 -2.25087
157 1 43.8382 28.1699 -2.78329
189 1 41.8483 23.0179 -0.746441
185 1 39.7029 24.8933 -0.994309
187 1 41.003 23.786 -1.5983
188 1 41.08 23.6254 -0.619992
200 1 43.324 25.5287 -1.24651
151 1 43.9357 25.0273 -1.75947
152 1 44.8201 25.403 -2.0057
154 1 45.0988 26.7814 -3.04642
191 1 41.8175 23.8173 0.992185
197 1 43.2665 27.1875 -0.378199
190 1 42.0571 23.4223 0.123175
198 1 43.9493 26.799 -0.864568
199 1 44.2109 25.838 -1.09048
192 1 42.6458 24.3079 0.857161
193 1 42.7074 24.6778 -0.0588859
196 1 43.3646 26.5764 0.363533
195 1 43.7454 25.9563 -0.232518
194 1 43.5416 25.0419 -0.299821
ITEM: TIMESTEP
6900000
ITEM: NUMBER OF ATOMS
100
ITEM: BOX BOUNDS ff ff ff
-5.0000000000000000e+01 5.0000000000000000e+01
-5.0000000000000000e+01 5.0000000000000000e+01
-5.0000000000000000e+01 5.0000000000000000e+01
ITEM: ATOMS id type x y z
34 1 -3.53491 10.6452 -25.9922
35 1 -3.44809 11.2649 -25.2632
36 1 -2.99083 10.8103 -24.5894
37 1 -3.04498 11.6664 -24.1325
7 1 -0.592005 15.8797 -27.5913
30 1 -4.22179 10.3992 -26.8544
31 1 -3.80294 9.71474 -26.3454
28 1 -5.77897 9.92457 -27.0541
29 1 -5.04097 10.1858 -26.4993
33 1 -3.1815 9.96588 -25.3692
32 1 -2.98628 9.28787 -26.0085
25 1 -5.62861 12.2604 -26.2072
27 1 -5.6471 10.8627 -27.2512
39 1 -2.64047 11.6009 -22.2804
38 1 -2.88742 11.8243 -23.2244
24 1 -5.77502 13.2052 -26.5801
15 1 -4.49143 17.0481 -26.1933
14 1 -3.56972 16.8105 -26.0466
5 1 0.274459 15.215 -27.4627
6 1 -0.561719 15.0215 -27.1009
12 1 -2.52494 17.7858 -25.8822
11 1 -1.70237 17.9797 -26.4593
10 1 -1.80581 17.1607 -26.9731
9 1 -1.10158 16.8065 -27.4723
8 1 -1.14753 16.2966 -28.3414
26 1 -5.56198 11.3193 -26.4425
40 1 -1.75811 11.889 -22.4705
23 1 -6.33929 13.128 -25.8155
41 1 -1.7949 12.3099 -23.3489
42 1 -1.97569 12.7783 -24.1142
22 1 -6.02965 13.8344 -25.2747
21 1 -5.19455 14.1102 -24.9075
20 1 -4.55211 14.5965 -24.3811
43 1 -1.57925 13.552 -24.6412
1 1 0.35498 15.0457 -23.6424
19 1 -4.0172 15.27 -23.9315
16 1 -4.78295 16.8376 -25.301
4 1 0.448121 15.5093 -26.5114
3 1 0.357078 15.7403 -25.5272
2 1 0.404021 15.2299 -24.5919
13 1 -2.67967 16.8849 -26.2541
45 1 -0.703159 13.9282 -23.5906
46 1 -0.349765 14.0785 -22.6759
47 1 0.150511 13.3456 -22.981
44 1 -1.0908 13.1373 -23.9771
48 1 0.739412 12.6366 -23.2739
50 1 0.709976 14.2265 -23.5129
49 1 0.575557 13.3576 -23.8492
18 1 -4.51762 16.0887 -24.2154
17 1 -5.05614 15.8606 -24.9553
166 1 37.9273 20.8871 -2.13391
165 1 38.0867 21.6403 -2.63478
179 1 35.4578 19.9405 0.0276811
167 1 37.62 20.0092 -1.94012
163 1 37.5975 22.6809 -3.06779
161 1 36.9371 23.6536 -1.62744
159 1 37.3219 23.9279 -0.622678
160 1 36.6414 23.1951 -0.805917
162 1 37.5366 23.1829 -2.21875
176 1 36.9678 17.8387 -0.456644
175 1 37.7814 17.3247 -0.573109
178 1 35.7072 19.0687 0.248601
177 1 36.3481 18.4201 -0.0441542
171 1 39.1412 17.9417 -0.901811
170 1 39.0462 18.8603 -1.37142
180 1 36.2273 20.4809 0.23897
181 1 36.0902 20.1005 1.0845
168 1 37.7791 18.9685 -1.97036
169 1 38.6681 19.3788 -2.16787
164 1 38.4649 22.5521 -2.70352
189 1 39.7716 23.0334 2.87882
158 1 37.9359 23.441 -1.29006
157 1 37.4237 22.5243 -1.15965
191 1 39.6577 21.7657 4.21834
190 1 39.8615 22.29 3.4656
174 1 38.1844 16.539 -1.02298
173 1 38.7027 16.8476 -0.285734
172 1 39.237 17.0576 -1.0758
182 1 36.5844 19.4776 1.62518
184 1 37.6531 20.2553 2.1367
185 1 38.5562 20.0435 1.93207
186 1 38.7216 21.0523 2.00425
187 1 38.79 21.9778 2.32232
188 1 39.1985 22.8303 2.13869
183 1 37.0849 19.5047 2.42421
156 1 37.8658 22.439 -0.31346
192 1 40.2273 21.6535 5.06118
193 1 40.9468 22.1425 4.66678
194 1 41.4006 22.8302 5.11197
155 1 38.6015 23.0177 -0.145921
154 1 38.7214 23.9629 0.0258098
153 1 38.7957 23.8705 0.984417
152 1 39.6481 23.7436 1.39866
151 1 40.1103 24.4059 1.91939
196 1 40.626 23.4463 4.24344
195 1 41.4651 22.9156 4.14259
198 1 39.7851 24.6992 4.09246
200 1 40.3694 24.7488 2.76589
197 1 40.0416 24.023 4.76385
199 1 39.5522 24.4056 3.15121
ITEM: TIMESTEP
7000000
ITEM: NUMBER OF ATOMS
100
ITEM: BOX BOUNDS ff ff ff
-5.0000000000000000e+01 5.0000000000000000e+01
-5.0000000000000000e+01 5.0000000000000000e+01
-5.0000000000000000e+01 5.0000000000000000e+01
ITEM: ATOMS id type x y z
45 1 -9.19694 18.4897 -22.0947
44 1 -9.08406 17.9639 -22.9464
43 1 -8.07902 18.1925 -23.0442
6 1 -12.3338 22.5796 -23.6075
38 1 -7.45979 19.0418 -21.7291
40 1 -6.33577 19.0978 -23.1982
39 1 -6.68266 18.8909 -22.3414
42 1 -8.26639 19.1133 -23.125
41 1 -7.29224 19.2654 -23.2557
7 1 -12.8992 23.0692 -24.1868
4 1 -11.5915 21.4082 -22.9754
47 1 -8.9781 19.4935 -21.6728
48 1 -8.86328 19.9769 -22.4904
46 1 -9.74601 18.9047 -21.4742
5 1 -12.3007 21.6179 -23.5359
37 1 -7.75222 19.9541 -21.6123
36 1 -7.84541 20.8092 -21.2316
35 1 -8.03324 21.4918 -20.627
32 1 -8.09207 23.6646 -19.86
8 1 -12.3252 23.6055 -23.5632
31 1 -7.52591 24.2693 -19.3396
30 1 -7.03373 24.5063 -20.0732
29 1 -6.6628 25.4268 -19.873
9 1 -12.3577 24.4465 -23.1241
10 1 -11.866 25.2266 -23.328
11 1 -11.0781 24.7339 -23.787
13 1 -11.3614 25.1157 -22.499
28 1 -6.65993 25.3058 -18.8438
2 1 -9.89477 21.1488 -22.8949
3 1 -10.7199 21.6776 -22.6979
1 1 -9.41928 21.499 -22.1467
49 1 -8.84962 20.6428 -23.1287
50 1 -8.77877 21.5559 -22.8301
34 1 -7.62995 22.3824 -20.5419
18 1 -9.59994 24.7288 -18.9531
33 1 -8.23729 23.1624 -20.6827
15 1 -10.4438 24.4568 -21.1187
16 1 -10.0518 24.2658 -20.2378
17 1 -10.4205 24.7392 -19.4732
27 1 -6.18667 24.5541 -18.5202
12 1 -11.1894 24.2448 -23.0173
14 1 -11.2746 24.5117 -21.7238
26 1 -5.81843 24.0379 -19.2594
19 1 -9.01064 23.9919 -18.8373
20 1 -8.19036 24.5937 -18.6838
21 1 -8.15526 23.7529 -18.2058
22 1 -7.8399 22.8761 -17.9483
24 1 -6.36553 23.3781 -18.1917
25 1 -5.73569 23.1397 -18.8806
23 1 -7.06452 22.7595 -18.4886
163 1 43.7496 20.4434 -1.63004
162 1 43.0768 19.9114 -1.98505
164 1 44.2769 19.9778 -2.30278
167 1 45.0835 21.9805 -2.95055
168 1 45.4262 22.6452 -3.58437
169 1 45.5301 23.5518 -3.46032
170 1 46.2349 23.495 -2.79144
171 1 46.4858 23.5476 -1.8286
173 1 47.6091 24.5556 -1.53489
172 1 47.0752 24.233 -2.31829
159 1 44.1785 19.4326 -0.369896
160 1 43.776 19.0212 -1.20287
161 1 43.5076 19.0128 -2.17035
165 1 43.6902 20.5606 -2.79321
166 1 44.2926 21.3667 -2.90131
175 1 47.1812 24.4294 0.205215
174 1 47.6265 24.0732 -0.643827
157 1 45.4364 19.2691 -1.18865
158 1 45.0675 19.7149 -0.409079
156 1 45.7126 20.2436 -1.20864
155 1 46.4648 20.7192 -1.51168
154 1 47.1008 20.8033 -0.830388
153 1 47.4144 21.342 -0.100813
152 1 46.618 21.0078 0.269754
151 1 46.2419 21.676 0.905684
200 1 46.4652 22.086 0.115556
197 1 45.9309 23.8399 -0.862612
177 1 48.3457 24.5998 1.84343
176 1 47.7947 24.363 0.997989
199 1 45.7288 22.0274 -0.488356
193 1 43.9157 24.5905 1.04931
192 1 44.0563 24.0954 1.86475
196 1 46.2665 24.5926 -0.401924
195 1 45.3413 24.6258 -0.35695
194 1 44.6152 24.6829 0.401501
198 1 45.6529 23.012 -0.535559
178 1 48.9236 25.4419 2.0153
181 1 47.5202 26.9499 1.17173
184 1 46.2712 28.2963 2.7475
185 1 45.4022 28.5004 2.34416
179 1 48.5919 26.2252 2.37126
180 1 48.338 26.588 1.5691
191 1 44.3551 25.0918 1.93442
190 1 43.8852 25.7671 1.48918
186 1 45.2336 28.2589 1.43239
183 1 46.3555 27.8189 1.94253
182 1 46.5901 26.9855 1.53631
188 1 44.2073 27.2641 1.69516
189 1 43.3964 26.6461 1.43538
187 1 45.0811 27.3853 1.13293
ITEM: TIMESTEP
7100000
ITEM: NUMBER OF ATOMS
100
ITEM: BOX BOUNDS ff ff ff
-5.0000000000000000e+01 5.0000000000000000e+01
-5.0000000000000000e+01 5.0000000000000000e+01
-5.0000000000000000e+01 5.0000000000000000e+01
ITEM: ATOMS id type x y z
33 1 -4.24204 14.9537 -17.998
34 1 -3.53924 15.4202 -17.377
36 1 -2.65355 16.5923 -16.9001
37 1 -2.76166 16.7284 -17.8497
24 1 -7.74139 17.0144 -15.0701
25 1 -6.86066 16.9905 -15.3983
26 1 -7.31926 16.1718 -15.6417
39 1 -1.64726 17.8111 -16.9711
29 1 -6.84465 16.3954 -17.2239
31 1 -6.00207 15.1776 -17.3177
32 1 -5.02217 15.2506 -17.4032
30 1 -6.0128 16.0958 -16.8994
35 1 -3.47257 16.3294 -17.2416
22 1 -8.82921 18.0982 -15.0375
23 1 -7.92102 17.9275 -14.8734
21 1 -9.13509 18.6096 -15.843
27 1 -7.29596 15.6385 -16.4494
28 1 -7.523 16.5465 -16.554
38 1 -2.23352 17.4939 -17.62
20 1 -8.41257 19.2759 -15.9933
19 1 -7.4938 19.4216 -15.926
41 1 -0.836005 19.1143 -16.4205
42 1 -1.49556 19.2557 -15.7067
40 1 -0.817434 18.3527 -16.9739
15 1 -7.57261 20.2092 -15.2249
18 1 -6.77533 19.2839 -15.3011
16 1 -8.05632 19.6932 -14.5409
17 1 -7.3586 18.985 -14.6025
44 1 -2.40043 20.0346 -16.0771
43 1 -2.3657 19.1092 -16.213
50 1 -4.4405 21.9285 -13.1202
47 1 -2.46696 20.8406 -14.7728
14 1 -7.11455 20.4062 -14.4405
13 1 -7.02542 21.3345 -14.6994
12 1 -7.0127 21.5936 -13.7764
11 1 -7.90817 21.9158 -13.8467
45 1 -1.74852 20.6487 -15.5966
46 1 -1.56587 21.1643 -14.8305
10 1 -8.26489 22.3952 -14.6158
1 1 -4.24438 22.1884 -12.2411
2 1 -4.54318 22.8631 -11.6331
49 1 -3.74712 21.4582 -13.606
48 1 -3.21662 21.1556 -14.3357
9 1 -7.50526 22.6977 -15.0908
8 1 -6.56686 22.5613 -14.881
7 1 -5.99707 22.9943 -14.1991
3 1 -4.74193 23.7057 -12.0899
5 1 -4.56222 23.9806 -13.497
6 1 -5.20115 23.3336 -13.728
4 1 -5.2416 24.1618 -12.7803
187 1 48.1844 21.1743 -1.97134
186 1 48.2033 22.1142 -2.13873
184 1 47.7897 23.6559 -2.23172
185 1 47.7571 22.8089 -2.65824
183 1 47.2962 23.3869 -1.40922
190 1 46.4065 20.8724 -0.309839
188 1 47.4893 21.5109 -1.43408
189 1 47.1387 20.8523 -0.841585
182 1 47.232 22.9234 -0.509475
179 1 48.5562 23.9548 0.753281
181 1 46.9099 23.642 0.0623378
191 1 46.7079 21.7078 -0.123573
193 1 47.4536 21.0826 1.28041
192 1 47.3781 21.3402 0.340776
178 1 48.4797 23.9885 -0.189977
177 1 47.6688 24.3526 0.217861
180 1 47.6481 23.5235 0.709576
176 1 47.5466 24.7602 1.08077
199 1 44.8428 20.9653 3.58993
198 1 44.7851 20.7514 2.64106
196 1 46.1561 21.9581 2.1288
197 1 45.5934 21.3171 2.55615
194 1 47.2225 21.9794 1.34743
195 1 46.9383 21.4613 2.11777
175 1 46.6864 24.7723 1.50701
174 1 45.8826 25.1145 1.07494
173 1 45.2675 24.5872 1.64901
172 1 45.1237 24.8088 2.57749
151 1 44.9459 20.3607 4.96509
152 1 45.4394 19.8565 5.61647
153 1 46.1961 19.9706 6.18523
200 1 44.5167 20.3465 4.12722
168 1 45.1542 27.2451 4.8881
170 1 44.2533 26.0664 3.65649
169 1 44.6433 26.6839 4.36594
171 1 44.9642 25.7337 3.0484
154 1 47.0294 20.2568 6.55932
155 1 46.9071 20.6827 5.72368
156 1 47.0114 21.6285 5.7053
161 1 45.2826 23.1713 5.29093
160 1 45.0231 22.6515 6.06414
159 1 45.615 22.3005 6.79133
166 1 45.2057 26.1218 5.85756
167 1 44.971 27.0815 5.82452
157 1 47.2799 21.5522 6.61744
162 1 45.6831 23.9817 5.58899
158 1 46.5665 22.1312 6.94512
165 1 45.7142 25.9948 5.0283
164 1 45.8427 25.2275 4.52545
163 1 45.5927 24.3232 4.69333
ITEM: TIMESTEP
7200000
ITEM: NUMBER OF ATOMS
100
ITEM: BOX BOUNDS ff ff ff
-5.0000000000000000e+01 5.0000000000000000e+01
-5.0000000000000000e+01 5.0000000000000000e+01
-5.0000000000000000e+01 5.0000000000000000e+01
ITEM: ATOMS id type x y z
13 1 -8.69703 18.4591 -17.4044
18 1 -4.84332 18.1945 -17.1355
19 1 -5.08196 19.2224 -17.419
17 1 -5.81961 17.9784 -17.3211
11 1 -8.84394 17.5331 -16.4633
9 1 -8.32121 19.0113 -15.514
10 1 -8.29568 18.2382 -16.0356
12 1 -8.94974 17.526 -17.468
14 1 -7.8622 18.7895 -17.0882
15 1 -6.91457 18.5466 -17.1462
16 1 -6.46384 18.2677 -18.0187
22 1 -5.60434 21.1751 -17.1231
20 1 -4.90406 19.9262 -17.969
21 1 -4.9386 20.9011 -17.7579
29 1 -6.91679 18.0315 -14.7855
6 1 -10.2214 18.9899 -14.2863
5 1 -10.3339 19.297 -13.3865
7 1 -9.72152 19.4512 -14.9211
28 1 -6.31571 17.7681 -15.4423
27 1 -6.11961 18.5498 -16.0069
8 1 -8.97529 19.7259 -15.5194
24 1 -5.40316 20.7965 -15.8723
25 1 -5.52453 19.928 -16.1554
26 1 -6.29829 19.3477 -16.5177
23 1 -4.79417 20.7558 -16.7378
31 1 -6.96378 17.2585 -13.4453
32 1 -7.50463 16.6348 -13.0137
30 1 -7.25228 18.0845 -13.9005
3 1 -10.6673 19.5208 -11.7824
4 1 -10.1577 19.6525 -12.5396
1 1 -10.8013 19.1803 -10.5369
2 1 -10.1371 19.6605 -11.0278
35 1 -9.58232 15.9563 -12.8019
36 1 -10.2962 16.2193 -12.2373
34 1 -9.06789 16.6223 -13.2573
33 1 -8.25291 16.0853 -13.1607
46 1 -14.4002 18.7079 -9.05477
45 1 -14.1687 17.7386 -9.27371
43 1 -14.2287 16.9108 -9.916
44 1 -14.7113 16.9607 -9.11174
50 1 -11.3174 19.4448 -9.78377
49 1 -12.2787 19.4237 -9.7485
48 1 -12.9571 19.4167 -9.14782
47 1 -13.8449 19.4498 -8.74489
42 1 -13.8547 16.046 -9.95142
41 1 -13.3509 16.248 -10.7527
37 1 -11.1047 15.82 -12.5401
38 1 -11.5293 15.9097 -11.6988
40 1 -12.9513 16.3567 -11.6348
39 1 -12.3321 15.8726 -11.163
188 1 35.6174 24.7796 10.9213
187 1 34.6371 24.6397 10.6738
184 1 35.0744 22.6753 10.9607
183 1 34.7901 23.4086 11.5789
189 1 35.902 25.4764 11.6038
186 1 35.0625 24.1584 9.89427
185 1 34.8776 23.3622 10.3618
191 1 36.4074 26.4374 11.3135
190 1 36.6288 25.5283 10.9554
197 1 39.3217 26.8183 12.2232
199 1 40.6261 27.005 12.7648
198 1 39.8444 27.5305 12.6956
192 1 36.5263 27.0151 10.5828
193 1 37.3787 27.2369 10.4775
194 1 37.9313 27.9596 10.8738
196 1 38.7485 26.766 11.4051
182 1 35.0581 23.8121 12.3942
181 1 34.8996 24.2697 13.2817
153 1 40.067 24.8017 14.7614
152 1 40.3527 25.0981 13.8904
155 1 38.7294 25.0721 14.523
200 1 40.8506 26.7715 13.6352
154 1 39.3346 25.0352 15.3186
151 1 40.8786 25.8585 13.9215
195 1 37.881 27.2086 11.4577
180 1 35.5824 24.7549 13.6836
179 1 35.9558 25.4057 14.2722
157 1 38.3256 26.9045 14.0692
156 1 38.6925 25.9888 14.2598
159 1 38.4223 26.5272 15.2532
161 1 37.1666 27.4025 16.0524
177 1 36.6336 25.5991 15.9036
176 1 35.8079 25.9334 16.2494
178 1 36.6943 25.1777 14.9151
158 1 37.7083 26.5077 14.6114
160 1 37.8022 27.3277 15.2346
162 1 37.214 27.7873 16.9376
175 1 35.9525 25.0951 16.5904
174 1 36.3024 24.2563 16.81
173 1 36.5393 23.6657 17.5879
172 1 36.7641 23.2199 18.3849
171 1 37.5426 22.8671 18.9977
164 1 35.8519 27.105 17.6719
166 1 36.5929 25.7212 18.3449
165 1 36.1429 26.5479 18.4359
163 1 36.806 27.306 17.7374
170 1 37.9358 23.7645 19.1622
169 1 37.0534 24.0079 19.0487
168 1 36.5677 24.8806 19.1821
167 1 37.2446 25.048 18.5318
ITEM: TIMESTEP
7300000
ITEM: NUMBER OF ATOMS
100
ITEM: BOX BOUNDS ff ff ff
-5.0000000000000000e+01 5.0000000000000000e+01
-5.0000000000000000e+01 5.0000000000000000e+01
-5.0000000000000000e+01 5.0000000000000000e+01
ITEM: ATOMS id type x y z
44 1 -12.0723 12.9421 -18.9513
45 1 -11.1275 12.7672 -19.0091
49 1 -9.53987 13.8286 -17.4992
48 1 -9.07268 14.0012 -18.2968
2 1 -10.1704 12.9774 -16.2348
43 1 -11.9298 13.3797 -18.0676
47 1 -9.44362 13.1906 -18.6765
46 1 -10.3751 13.3055 -18.791
42 1 -12.1909 14.2215 -17.6814
41 1 -11.6777 15.0287 -17.9361
11 1 -13.1169 9.73228 -17.2766
8 1 -11.258 10.1255 -16.7964
7 1 -11.3102 10.6714 -17.5323
5 1 -9.82119 11.2956 -16.8935
4 1 -10.4508 11.9856 -17.1205
3 1 -10.6662 12.1734 -16.2029
50 1 -9.38308 13.9347 -16.5085
1 1 -10.3391 13.8897 -16.3733
38 1 -10.5793 15.8014 -17.9141
37 1 -9.95096 16.203 -17.3787
39 1 -11.2777 16.2869 -17.4563
40 1 -12.0876 15.8654 -17.737
10 1 -12.5912 8.99623 -16.8924
12 1 -13.0327 10.7035 -17.1193
13 1 -12.8079 10.6785 -18.0295
9 1 -11.6594 9.27578 -16.537
14 1 -13.6677 10.7668 -18.65
15 1 -13.9792 11.1089 -17.7457
6 1 -10.6894 10.9167 -16.867
16 1 -13.8312 11.8053 -17.0737
36 1 -9.62788 15.3942 -16.8509
32 1 -11.3082 14.0712 -14.5357
21 1 -12.0282 12.8574 -14.1319
22 1 -11.8634 12.7465 -13.1788
35 1 -9.53802 15.7136 -15.9011
17 1 -13.9013 12.5163 -16.396
18 1 -13.8614 12.3237 -15.414
30 1 -12.2973 14.5814 -13.9477
19 1 -12.9573 12.4936 -15.4363
20 1 -12.555 13.1676 -14.8648
24 1 -10.7404 14.0965 -12.597
33 1 -11.044 14.8425 -15.0293
31 1 -11.332 14.8053 -13.961
34 1 -10.3414 15.3712 -15.4336
25 1 -10.3371 14.9583 -13.035
23 1 -11.1168 13.2888 -12.9651
29 1 -12.5596 15.5463 -13.7483
28 1 -11.9792 16.1877 -13.3994
27 1 -11.0818 15.9663 -13.1083
26 1 -10.4226 15.5976 -13.7387
180 1 34.2588 19.2555 10.2363
179 1 33.6667 20.0661 10.2838
182 1 35.73 18.9014 11.0428
181 1 34.9484 18.6382 10.6193
183 1 35.6673 19.8578 11.0157
184 1 35.317 20.6992 10.9265
185 1 35.9717 20.7982 10.2776
186 1 36.1036 21.7651 10.468
187 1 35.6801 22.3545 11.1312
195 1 39.1432 25.6888 10.8877
178 1 32.8083 20.3545 10.4893
177 1 32.313 20.873 11.1434
188 1 36.0218 22.0511 12.0008
189 1 36.6261 22.7815 12.1719
190 1 36.9764 23.3121 11.41
191 1 37.8887 23.26 11.7331
192 1 38.4333 23.1046 10.9367
193 1 38.7979 23.9767 10.6817
161 1 38.3824 25.2716 14.8945
194 1 39.1386 24.7553 11.1492
196 1 38.7971 26.4962 11.3286
197 1 38.6815 26.9817 10.5076
198 1 38.8453 27.2566 9.61057
199 1 39.6439 27.2041 9.20102
176 1 31.8777 20.1288 11.5691
175 1 32.1781 19.7036 12.4042
174 1 32.5561 19.9869 13.2146
163 1 37.1001 24.9051 14.861
162 1 37.6129 25.8294 14.8253
160 1 38.2843 24.6878 14.1422
159 1 38.2178 25.5105 13.6987
158 1 38.4054 25.842 12.8396
157 1 39.1924 26.3581 12.6995
155 1 40.5639 25.6701 11.8057
153 1 41.8459 26.5939 10.8278
151 1 40.7012 26.95 10.3456
200 1 40.5139 26.8031 9.38293
173 1 32.2574 20.8521 13.3558
172 1 32.4508 21.7938 12.8744
167 1 34.2926 22.6629 15.4294
164 1 36.6003 24.1378 15.0742
166 1 35.2755 22.8381 15.3573
165 1 35.7578 23.6947 15.1227
156 1 39.6798 25.8153 12.1162
154 1 40.9923 26.2243 11.1382
152 1 41.5728 27.4736 10.3561
171 1 32.2484 21.9368 13.779
170 1 32.4859 22.6737 14.39
169 1 33.0711 22.0881 14.9386
168 1 33.3828 22.9064 15.3125
ITEM: TIMESTEP
7400000
ITEM: NUMBER OF ATOMS
100
ITEM: BOX BOUNDS ff ff ff
-5.0000000000000000e+01 5.0000000000000000e+01
-5.0000000000000000e+01 5.0000000000000000e+01
-5.0000000000000000e+01 5.0000000000000000e+01
ITEM: ATOMS id type x y z
3 1 -17.9768 4.361 -7.93958
2 1 -17.8418 4.63252 -8.89532
5 1 -17.5404 3.5948 -6.30285
4 1 -17.8065 3.97632 -7.12083
6 1 -18.4861 3.80644 -6.23912
1 1 -17.0301 5.04059 -9.2078
50 1 -16.6051 5.84238 -8.78802
49 1 -17.1275 6.00183 -7.92843
48 1 -16.745 6.22255 -7.0671
47 1 -17.2664 6.98971 -6.79378
43 1 -19.5667 7.59992 -4.74028
44 1 -18.9697 7.95173 -5.47102
45 1 -18.0974 7.62276 -5.54311
46 1 -17.8335 6.84372 -6.07779
7 1 -17.9766 4.19575 -5.60164
39 1 -19.688 4.80254 -4.85766
38 1 -19.1148 4.82656 -5.77895
40 1 -20.3684 5.35899 -4.34828
41 1 -20.0987 6.21545 -4.09114
42 1 -19.8796 7.18179 -3.90208
9 1 -18.6929 3.69289 -5.08889
10 1 -18.7013 3.81391 -4.13555
8 1 -17.7592 3.39832 -5.13198
30 1 -17.5588 8.41111 -3.06971
29 1 -16.69 8.38392 -2.60927
27 1 -15.5658 8.4201 -2.0695
28 1 -15.8095 8.56186 -2.98877
37 1 -18.3757 5.4402 -5.80634
36 1 -17.9849 5.1442 -4.94346
11 1 -18.2099 4.16505 -3.37264
12 1 -17.3971 3.8313 -3.06595
32 1 -18.5085 6.83294 -2.71317
23 1 -15.7236 6.33794 -1.63811
35 1 -17.5037 5.90276 -4.43261
34 1 -17.0758 6.07058 -3.58586
33 1 -18.049 6.15991 -3.24725
31 1 -17.9574 7.46624 -3.1145
26 1 -15.2747 7.67152 -2.70286
24 1 -14.8266 6.6664 -1.67251
25 1 -14.4981 7.13806 -2.48064
14 1 -16.8065 3.46818 -1.60732
13 1 -16.5688 3.84119 -2.51462
17 1 -16.9562 5.34212 -0.243791
15 1 -16.525 3.84896 -0.769079
16 1 -16.6326 4.45123 -0.0475815
18 1 -17.0322 5.00818 -1.14141
19 1 -16.6548 5.35325 -2.0014
20 1 -16.0643 5.05318 -2.72644
22 1 -15.2761 5.83129 -2.32842
21 1 -15.1563 4.92243 -2.17119
157 1 49.3177 13.4964 23.9147
156 1 48.6127 14.0619 24.51
155 1 47.7478 14.4464 24.6191
162 1 48.45 11.1137 23.6702
161 1 48.5746 11.9714 23.1292
158 1 49.2283 13.5923 23.0239
159 1 48.4995 13.1019 22.6263
160 1 47.844 12.4033 22.6856
153 1 46.9775 15.7926 25.14
154 1 47.5075 15.3394 24.5294
199 1 44.3633 16.5481 25.3858
151 1 45.1781 15.1453 24.9311
152 1 45.9843 15.6406 25.147
200 1 44.415 15.6896 25.0271
166 1 45.7086 10.6781 24.2652
163 1 47.6166 11.5924 23.3554
164 1 46.6244 11.7081 23.3209
165 1 45.7798 11.2429 23.5016
179 1 39.4375 13.8417 24.8041
181 1 39.6159 15.2664 23.6798
180 1 39.2371 14.4328 24.0281
186 1 41.0788 16.2833 25.0775
187 1 41.9588 16.5699 25.0539
189 1 42.6417 16.7773 24.2135
188 1 42.0519 17.413 24.6134
196 1 45.5708 17.6754 24.023
197 1 45.9739 16.8786 24.3439
198 1 45.3154 16.5884 25.0887
194 1 44.9707 18.4578 24.2056
193 1 44.4126 17.7118 23.9372
195 1 45.3074 17.8933 24.8851
168 1 46.3684 11.9683 25.0709
178 1 40.0437 13.3431 25.2717
177 1 40.7499 14.0023 25.3185
176 1 40.975 13.6245 26.164
169 1 45.6413 12.3245 24.4641
170 1 45.301 13.1945 24.286
167 1 45.6735 11.3461 24.9929
182 1 39.7182 15.8609 24.4204
173 1 43.4417 13.0792 25.6974
171 1 44.5707 12.6889 24.5371
183 1 39.7581 16.0509 25.3301
184 1 40.3473 15.898 26.1704
185 1 41.2261 15.7562 25.928
190 1 42.9971 15.9982 23.8152
191 1 43.6147 16.6952 23.6821
192 1 44.0142 17.0387 24.523
175 1 41.9289 13.5053 26.1228
174 1 42.7846 13.8147 25.8716
172 1 44.3384 13.0024 25.3782
ITEM: TIMESTEP
7500000
ITEM: NUMBER OF ATOMS
100
ITEM: BOX BOUNDS ff ff ff
-5.0000000000000000e+01 5.0000000000000000e+01
-5.0000000000000000e+01 5.0000000000000000e+01
-5.0000000000000000e+01 5.0000000000000000e+01
ITEM: ATOMS id type x y z
47 1 -15.352 -3.51123 -2.88511
46 1 -14.9767 -3.90918 -3.63807
44 1 -14.4539 -2.3925 -3.16892
43 1 -15.393 -1.99884 -3.1696
45 1 -14.5675 -3.08292 -3.80472
48 1 -15.3105 -3.54955 -1.93873
41 1 -16.1703 -1.07061 -2.26288
42 1 -15.3479 -1.13603 -2.87489
39 1 -15.7251 -0.141919 -1.44717
50 1 -15.6093 -2.54071 -0.301066
49 1 -15.3172 -3.09297 -1.07083
40 1 -15.9853 -1.05467 -1.23798
37 1 -14.6957 1.30352 -0.887441
38 1 -15.1026 0.426479 -0.874187
36 1 -14.47 2.19663 -1.01474
1 1 -15.3577 -1.97872 -1.01382
2 1 -15.1451 -1.32488 -0.349794
35 1 -14.7506 3.11291 -1.05567
34 1 -14.7596 3.71552 -0.284679
5 1 -17.3298 -1.13001 0.817905
3 1 -16.0638 -1.40609 -0.175345
4 1 -16.733 -1.80857 0.362743
23 1 -18.3732 1.23655 2.21685
24 1 -17.4236 1.42305 2.16288
25 1 -16.6197 1.66097 2.62778
26 1 -15.9015 1.96061 3.08526
27 1 -15.2033 1.34878 3.33706
33 1 -14.6734 3.70435 0.674064
32 1 -14.5738 2.78098 0.993224
30 1 -15.9189 1.82316 0.998971
31 1 -15.0431 2.03581 0.714219
11 1 -17.4586 -1.44326 4.89306
10 1 -17.4594 -1.77483 4.03215
8 1 -18.1725 -1.48405 2.88793
9 1 -17.7686 -2.24565 3.30999
7 1 -17.7843 -1.85777 2.1053
6 1 -17.8943 -0.998355 1.69597
22 1 -18.4346 1.70754 3.02963
20 1 -19.6207 2.43207 3.73276
21 1 -19.2846 1.61822 3.52264
29 1 -15.3384 1.79507 1.78772
28 1 -14.8037 1.37088 2.43705
12 1 -16.8843 -1.06753 5.565
14 1 -17.753 0.061883 5.40054
13 1 -17.5222 -0.578014 6.11401
16 1 -19.024 1.39379 5.43096
15 1 -18.7492 0.34318 5.30706
17 1 -19.925 1.64479 5.49328
18 1 -20.6108 1.33245 4.86317
19 1 -20.2843 1.95857 4.22086
185 1 40.5635 13.4412 13.7939
183 1 41.1217 12.6106 14.634
182 1 40.4113 12.4298 15.2637
181 1 40.427 11.4428 15.1708
184 1 41.1671 12.6763 13.6671
186 1 40.7619 14.2877 14.231
187 1 41.3279 14.3525 13.4612
188 1 41.0649 14.8998 12.71
189 1 41.3121 15.6295 12.1908
194 1 44.1769 15.797 12.9777
197 1 46.092 16.3977 14.6077
195 1 45.1288 16.0215 13.1955
196 1 46.0158 16.2796 13.6734
178 1 39.1721 12.1201 16.7702
180 1 39.4282 11.3532 15.1999
179 1 39.4561 11.9541 15.9161
177 1 40.0778 12.5707 16.8732
175 1 40.7557 13.8847 16.0319
174 1 40.9706 14.7207 15.6768
191 1 42.4528 15.1444 11.3363
190 1 42.2434 15.5373 12.2177
192 1 42.9035 14.5715 11.9733
193 1 43.6267 15.3153 12.3568
198 1 46.8968 16.0417 14.3503
199 1 47.1321 16.4657 15.1506
176 1 40.7826 12.9159 16.2275
171 1 41.6392 14.921 17.3529
172 1 42.1997 14.8662 16.6538
173 1 41.9213 14.5201 15.8531
170 1 41.4873 15.812 17.7263
166 1 40.691 17.6702 17.7575
151 1 47.0495 17.8798 16.3145
200 1 46.8813 17.2318 15.6084
152 1 46.5923 17.7377 17.1191
169 1 41.1172 15.9646 16.8189
168 1 40.2756 16.5097 16.5973
167 1 40.9261 17.0341 17.0489
153 1 46.4765 17.3383 18.0186
165 1 40.3981 17.3971 18.6001
164 1 41.1216 17.777 19.1867
154 1 46.1031 18.1027 18.4567
155 1 45.8918 18.8697 18.9681
160 1 43.3553 18.3871 19.23
159 1 43.8696 17.6461 18.7125
158 1 44.7682 17.7907 19.1868
156 1 45.039 18.7164 19.511
163 1 41.0458 17.2001 19.9848
162 1 41.9942 17.3087 19.8556
157 1 45.711 18.0165 19.5849
161 1 42.5706 18.0537 19.644
ITEM: TIMESTEP
7600000
ITEM: NUMBER OF ATOMS
100
ITEM: BOX BOUNDS ff ff ff
-5.0000000000000000e+01 5.0000000000000000e+01
-5.0000000000000000e+01 5.0000000000000000e+01
-5.0000000000000000e+01 5.0000000000000000e+01
ITEM: ATOMS id type x y z
29 1 -27.7006 12.7174 0.620867
28 1 -28.6771 12.6844 0.348503
30 1 -27.1033 11.8718 0.700733
31 1 -26.8256 12.5555 0.0582569
33 1 -27.3355 13.6103 -1.33569
35 1 -26.0801 14.8998 -0.858832
5 1 -27.5577 9.30059 5.82032
25 1 -28.7 10.6506 1.66359
27 1 -28.6811 11.7491 0.470051
46 1 -25.6399 14.1237 2.6386
43 1 -25.9172 14.6989 1.2034
44 1 -25.6268 13.8837 0.790069
32 1 -27.2548 12.831 -0.707765
34 1 -26.9012 14.3418 -0.834649
36 1 -25.5408 15.5124 -1.26884
38 1 -25.7902 16.1032 -0.0695223
37 1 -26.1201 16.2143 -0.918044
41 1 -25.2856 16.1046 2.12911
39 1 -25.245 16.6686 0.554491
40 1 -24.7826 16.3415 1.33398
21 1 -29.0103 8.52072 1.44134
20 1 -29.8097 8.35236 1.91226
22 1 -28.9312 9.34078 0.971353
23 1 -28.4195 9.93969 0.396008
4 1 -27.189 10.1104 5.43053
2 1 -26.552 10.675 4.09443
3 1 -26.4058 10.5797 5.01942
24 1 -29.1462 10.5008 0.870821
26 1 -28.7198 11.6155 1.37335
6 1 -28.1252 8.55267 5.72811
8 1 -29.6318 8.68806 5.54125
7 1 -28.8504 8.47261 5.10164
49 1 -26.4147 12.6576 4.52016
48 1 -26.7016 13.2483 3.80681
1 1 -25.9199 11.3939 4.13974
47 1 -25.9301 13.5512 3.32402
45 1 -25.4519 13.8424 1.76098
42 1 -25.7627 15.6071 1.42628
19 1 -30.4689 7.60907 1.99611
16 1 -30.6972 9.37014 2.13715
14 1 -30.1017 9.51352 3.85652
18 1 -31.0635 8.30415 1.60652
17 1 -31.5897 8.83537 2.26327
10 1 -30.835 8.93962 5.47777
9 1 -30.3674 8.39156 6.16971
50 1 -26.6529 11.7106 4.64841
15 1 -30.6602 9.42989 3.09968
13 1 -30.9133 9.05303 4.01512
12 1 -30.9446 9.85803 4.55165
11 1 -30.1888 9.37875 4.89228
179 1 42.8575 12.6446 13.8275
177 1 44.1665 12.8143 12.5872
176 1 44.9666 13.292 12.6071
175 1 45.8608 13.6935 12.404
185 1 42.1779 9.21216 14.8439
183 1 41.6821 10.1583 14.1921
182 1 41.2305 10.9645 13.9702
184 1 41.2357 9.34781 14.5235
181 1 41.4765 11.8508 13.9025
180 1 42.0777 12.3752 14.4657
178 1 43.4956 13.0647 13.2045
174 1 46.7084 13.3152 12.4845
173 1 46.7681 13.3779 13.4964
188 1 41.7334 7.87031 16.0634
189 1 42.3898 7.15173 15.7477
190 1 42.8005 6.34632 16.2213
187 1 42.5273 8.40725 15.7211
186 1 43.0225 9.16802 15.3548
170 1 44.3903 12.6106 14.7304
169 1 44.1759 12.8892 15.6475
168 1 44.7881 13.3935 16.2041
172 1 46.0583 12.8465 13.9952
171 1 45.1557 12.4549 14.173
192 1 42.7296 5.37787 17.3691
191 1 42.9864 6.3099 17.1914
162 1 45.1831 10.2979 18.5183
167 1 45.7088 13.4333 16.5755
165 1 45.9761 12.8738 17.9219
164 1 45.5213 12.0358 18.0796
166 1 45.2795 13.3612 17.4536
194 1 42.1857 4.5718 18.9094
193 1 42.9297 5.03194 18.2856
159 1 43.1888 9.73756 18.2457
160 1 44.0605 10.2436 18.421
157 1 41.4214 10.2855 18.6084
158 1 42.3123 10.0214 18.5234
161 1 44.55 10.2983 19.2633
163 1 45.4347 11.1147 18.0788
196 1 41.2722 4.64403 19.5118
195 1 41.3025 4.70757 18.5431
197 1 41.3728 5.51583 19.9138
153 1 42.8497 8.21656 20.0541
152 1 41.8904 8.09795 19.934
155 1 42.1199 9.31258 19.9066
154 1 42.8315 9.07299 20.5475
156 1 41.7758 10.1143 19.4671
151 1 40.967 7.80099 19.5701
200 1 40.2991 7.2033 19.2033
199 1 40.3153 6.27093 19.0979
198 1 40.5077 5.45672 19.5524
ITEM: TIMESTEP
7700000
ITEM: NUMBER OF ATOMS
100
ITEM: BOX BOUNDS ff ff ff
-5.0000000000000000e+01 5.0000000000000000e+01
-5.0000000000000000e+01 5.0000000000000000e+01
-5.0000000000000000e+01 5.0000000000000000e+01
ITEM: ATOMS id type x y z
2 1 -20.2883 15.9059 3.04014
3 1 -20.6416 15.0445 3.41189
45 1 -20.9016 19.1765 0.688101
46 1 -20.3067 18.3987 0.531571
44 1 -19.9718 19.3309 0.844123
43 1 -19.7618 20.1276 1.32176
4 1 -21.5783 15.2283 3.35103
5 1 -21.7297 14.3256 3.33797
1 1 -20.0108 16.1103 2.10059
50 1 -20.0286 16.5982 1.32083
47 1 -21.0137 17.8083 0.352118
49 1 -20.7908 16.7513 0.721952
48 1 -21.698 17.1677 0.486744
42 1 -19.008 20.2559 1.87236
41 1 -18.9155 19.2937 1.64556
22 1 -23.3655 20.7913 1.11127
21 1 -23.6241 20.4178 0.270503
23 1 -23.8632 21.0288 1.94222
24 1 -24.0094 21.904 2.16504
25 1 -24.937 21.4263 2.16331
28 1 -22.8916 21.8093 3.93192
26 1 -24.4655 21.3113 2.999
27 1 -23.7989 21.844 3.4807
6 1 -22.1516 13.74 2.6569
7 1 -23.1262 13.614 2.67283
8 1 -22.9527 14.469 2.96613
9 1 -22.5631 15.1588 2.27675
10 1 -23.0154 15.8734 2.76621
13 1 -22.9084 18.25 2.64446
11 1 -23.6288 16.5563 2.52111
39 1 -18.8019 19.2379 3.22571
40 1 -18.2733 19.0087 2.40681
31 1 -21.71 20.3303 4.06837
32 1 -21.0641 20.6399 4.72706
19 1 -24.5607 19.4043 1.23749
20 1 -24.4429 20.1168 0.654316
30 1 -21.7704 21.2926 4.13925
29 1 -22.0021 22.0714 3.61574
12 1 -23.226 17.3481 2.64672
14 1 -22.146 18.8536 2.90014
36 1 -20.1606 18.0352 4.81386
38 1 -19.4946 18.5426 3.33021
37 1 -19.898 17.8452 3.89723
15 1 -22.2834 19.0601 1.93516
17 1 -23.6898 18.4696 0.910638
16 1 -22.8022 18.4891 1.24982
35 1 -20.0073 18.9261 4.71986
34 1 -19.7899 19.8554 4.57358
33 1 -20.3462 20.2355 5.25532
18 1 -24.1524 18.7183 1.70293
196 1 43.8719 -0.104751 9.64742
195 1 43.6356 0.522189 10.3022
194 1 43.0422 0.604428 9.57494
191 1 43.1061 2.96914 10.071
197 1 44.7424 0.0400277 10.1061
198 1 44.8094 -0.382566 9.27263
193 1 42.617 1.42331 9.41501
199 1 44.707 -0.728393 8.40656
192 1 42.9028 2.02472 10.1153
190 1 44.0101 3.28915 9.72373
189 1 43.7734 4.22004 9.65439
188 1 43.5919 4.81814 10.4085
187 1 43.205 5.62079 10.7479
186 1 43.7391 6.32697 10.404
184 1 42.6339 6.71683 11.3106
185 1 43.6019 6.62311 11.2378
152 1 45.8585 -2.36488 9.46749
153 1 45.1855 -2.23667 10.1679
154 1 46.0994 -1.92555 10.5784
200 1 44.4483 -1.67863 8.5365
151 1 45.136 -1.84811 9.21342
172 1 45.1802 5.78632 12.594
170 1 46.2284 5.0187 13.8522
171 1 45.4147 5.47968 13.4515
169 1 45.5654 4.42892 14.1431
173 1 44.4991 6.29407 13.0696
181 1 41.607 5.38366 12.0685
183 1 41.6649 6.8908 11.3437
182 1 41.3675 6.3048 12.1051
155 1 45.8144 -1.12929 10.9519
156 1 46.1328 -1.35073 11.8417
167 1 45.7628 3.9438 15.4825
166 1 45.4444 3.26785 16.1349
175 1 43.4462 6.20834 13.2495
168 1 46.22 4.37208 14.8029
178 1 41.1136 6.2094 13.4884
177 1 41.8718 6.61345 13.9604
176 1 42.7648 6.67186 13.643
174 1 43.9591 7.06478 13.3149
180 1 41.2468 4.75364 12.7193
179 1 41.471 5.22499 13.5216
158 1 45.6019 -1.3192 12.8511
157 1 45.3737 -1.90831 12.0823
160 1 45.0754 -0.233864 13.605
159 1 44.7128 -1.01929 13.2872
163 1 44.941 2.07787 14.6498
162 1 44.4314 1.27529 14.34
164 1 45.2753 2.60133 15.3939
165 1 44.6626 3.28583 15.6393
161 1 45.1368 0.587106 14.1691
ITEM: TIMESTEP
7800000
ITEM: NUMBER OF ATOMS
100
ITEM: BOX BOUNDS ff ff ff
-5.0000000000000000e+01 5.0000000000000000e+01
-5.0000000000000000e+01 5.0000000000000000e+01
-5.0000000000000000e+01 5.0000000000000000e+01
ITEM: ATOMS id type x y z
42 1 -18.9312 11.4179 -1.10294
44 1 -17.5515 11.6926 -1.66388
43 1 -18.2148 12.1209 -1.09392
40 1 -19.9428 10.9745 -1.88848
41 1 -19.3094 10.5126 -1.19012
25 1 -23.2209 10.5768 -2.66643
45 1 -16.8064 11.5987 -2.423
27 1 -23.7597 11.8852 -2.82177
26 1 -24.0243 10.9546 -2.97297
39 1 -19.3566 11.1355 -2.58479
47 1 -16.2921 10.1986 -3.45861
46 1 -16.4472 11.1147 -3.22106
38 1 -19.1569 11.1287 -3.54085
3 1 -17.259 8.4381 -1.01498
4 1 -17.172 9.10448 -0.330215
2 1 -16.549 8.57138 -1.6508
1 1 -15.8285 8.35553 -2.26828
24 1 -23.3435 9.7095 -2.22396
50 1 -15.9281 8.42427 -3.22372
48 1 -16.2042 9.49834 -4.06858
49 1 -16.5949 9.13135 -3.1712
23 1 -23.1131 9.03721 -1.61464
28 1 -23.2855 11.7868 -2.01216
22 1 -23.6722 8.73716 -2.38707
193 1 41.7813 13.8837 3.37064
29 1 -23.2718 12.7417 -1.92926
30 1 -22.6396 13.4432 -1.83655
32 1 -21.5989 12.0874 -2.6345
35 1 -20.9611 12.4983 -4.35553
31 1 -22.0301 12.9393 -2.39258
37 1 -19.4778 12.0419 -3.62395
36 1 -20.1515 11.9857 -4.40104
33 1 -20.6538 12.2194 -2.51639
7 1 -18.8711 7.94563 0.232156
13 1 -21.1969 5.39871 0.565636
11 1 -20.16 5.44309 1.67173
10 1 -19.971 6.06587 0.918074
5 1 -17.785 9.25139 0.379742
6 1 -18.6437 8.86021 0.152308
9 1 -20.1192 7.02163 0.907294
8 1 -19.5332 7.29904 0.219588
158 1 35.9018 9.34155 1.05432
19 1 -21.9575 6.88043 -1.87667
17 1 -22.3557 6.8463 -0.802679
18 1 -22.8264 6.4831 -1.58439
15 1 -20.8222 6.32802 -0.35364
197 1 41.4685 12.5223 1.95353
196 1 41.8172 13.2742 1.29764
195 1 41.7894 13.7405 2.2727
20 1 -22.3387 7.59404 -2.47852
21 1 -23.1223 7.9879 -2.01871
16 1 -21.464 6.73899 -1.01403
169 1 34.1027 11.8499 -1.1829
170 1 34.2604 12.343 -0.39687
172 1 35.3643 11.6797 -0.33567
190 1 39.8936 12.5404 3.97912
192 1 41.3573 13.241 3.91797
194 1 42.301 14.3751 2.75667
34 1 -20.9377 12.277 -3.42102
168 1 33.9692 11.0153 -0.748586
171 1 35.1291 12.6586 -0.525472
173 1 36.275 11.6202 -0.00389076
189 1 39.4535 12.1268 3.21635
191 1 40.8362 12.354 3.88173
12 1 -20.4273 4.87831 0.995925
157 1 36.643 9.15924 0.509456
14 1 -21.6214 6.13215 0.0757816
159 1 35.4792 9.13594 0.228079
160 1 34.7155 8.51986 0.45396
161 1 34.7827 8.07107 1.33648
200 1 39.837 10.2898 2.22909
151 1 39.4322 9.34053 2.24411
198 1 40.6991 12.0484 2.34347
199 1 40.228 11.2171 2.361
166 1 32.3341 10.7591 0.154582
174 1 36.5915 10.9788 0.723966
175 1 36.2536 11.8277 1.11243
176 1 35.6418 11.3642 1.60076
167 1 33.2407 10.8413 -0.133906
187 1 38.9869 13.121 1.93604
188 1 39.1748 12.9437 2.81368
155 1 37.7588 8.80652 0.29369
156 1 37.4091 9.68887 0.146437
152 1 38.9229 9.4133 1.46014
154 1 37.4559 8.71708 1.21542
153 1 37.9413 9.35675 1.6744
162 1 33.9894 8.56417 1.26628
177 1 35.7367 11.7476 2.47261
178 1 36.6592 11.8455 2.25256
165 1 32.4814 9.86195 0.241938
164 1 33.2992 10.115 0.673584
163 1 33.9266 9.52053 1.16661
186 1 38.4968 13.8491 2.36156
185 1 38.3961 14.6083 3.00911
184 1 37.4349 14.8706 3.04347
179 1 36.7545 12.7234 2.71767
180 1 37.6407 12.5526 2.44391
181 1 37.7209 12.8136 3.32672
182 1 37.9072 13.6118 3.798
183 1 37.3951 14.4383 3.89453
ITEM: TIMESTEP
7900000
ITEM: NUMBER OF ATOMS
100
ITEM: BOX BOUNDS ff ff ff
-5.0000000000000000e+01 5.0000000000000000e+01
-5.0000000000000000e+01 5.0000000000000000e+01
-5.0000000000000000e+01 5.0000000000000000e+01
ITEM: ATOMS id type x y z
35 1 -19.5282 -6.22979 -15.9431
34 1 -20.5202 -6.56979 -15.912
36 1 -18.8038 -6.51357 -15.3877
38 1 -17.9228 -7.06913 -15.1115
30 1 -22.1159 -6.51454 -13.3949
31 1 -21.6264 -6.43955 -14.1859
32 1 -20.8181 -6.8169 -14.5313
33 1 -20.1287 -6.38886 -15.0521
37 1 -18.3119 -7.03771 -16.0012
29 1 -21.5331 -5.85734 -13.1389
40 1 -18.3294 -5.88881 -13.9793
39 1 -18.5193 -6.73298 -14.3813
41 1 -17.7526 -5.64084 -13.144
28 1 -22.1017 -5.96908 -12.3566
27 1 -22.6484 -5.40459 -12.9669
26 1 -22.4898 -4.82577 -12.1299
42 1 -16.905 -5.42831 -12.7742
25 1 -23.3485 -5.12466 -11.7756
44 1 -16.9184 -4.92686 -11.6547
45 1 -16.7343 -4.16621 -12.2234
24 1 -23.8136 -5.54682 -10.9981
23 1 -23.4158 -6.11542 -10.3476
43 1 -17.6544 -5.10863 -12.3294
47 1 -17.7474 -3.09346 -11.9051
46 1 -17.0749 -3.61935 -11.4812
48 1 -18.6 -2.61349 -11.7035
49 1 -18.7694 -1.79795 -11.2836
19 1 -23.3691 -8.76091 -8.84313
21 1 -23.144 -7.47501 -9.80988
20 1 -23.6303 -8.29044 -9.63409
22 1 -23.3138 -6.5454 -9.51723
13 1 -21.3795 -5.97851 -8.28166
12 1 -20.9065 -5.16689 -8.74965
11 1 -21.3049 -4.54929 -9.34206
7 1 -19.8595 -3.36739 -12.0237
6 1 -19.5159 -2.74593 -11.2364
50 1 -19.1781 -1.2919 -10.5555
4 1 -19.292 -1.2199 -11.9199
1 1 -19.9758 -1.42828 -9.94701
2 1 -20.4275 -1.39052 -10.8129
18 1 -23.2998 -8.75987 -7.88638
17 1 -22.58 -8.44614 -7.30373
14 1 -22.0855 -6.66725 -8.14036
15 1 -21.7835 -7.54786 -7.96655
9 1 -20.6307 -3.72113 -10.902
8 1 -20.4029 -4.19716 -11.7258
10 1 -20.8818 -4.00082 -9.96774
5 1 -19.7261 -2.10782 -11.8963
3 1 -20.0732 -0.8396 -11.4777
16 1 -21.662 -8.51067 -7.67705
196 1 35.2439 13.6241 8.94632
197 1 34.9792 12.8209 9.40888
195 1 35.6711 12.9989 8.37563
194 1 36.2985 13.6818 8.34253
200 1 33.8478 14.4051 8.94361
199 1 34.1271 13.7256 9.59032
151 1 33.478 15.2081 8.6288
198 1 34.8992 13.4716 10.0876
193 1 37.1281 13.5345 7.8693
192 1 38.0291 13.2692 8.03475
152 1 33.0944 16.0375 8.86321
153 1 32.16 16.3208 9.06473
181 1 36.4096 16.0934 10.0962
184 1 35.8541 14.3354 9.33291
183 1 35.2906 15.1052 9.17755
182 1 35.9945 15.2001 9.88835
185 1 36.3033 14.6592 8.50443
155 1 32.4689 17.3238 7.85854
154 1 32.0271 16.5183 8.12358
162 1 34.507 18.9767 6.23143
163 1 34.4465 19.7291 6.78076
166 1 35.5282 19.6608 7.05887
164 1 34.4846 19.0105 7.47519
165 1 34.9811 19.7315 7.8828
191 1 38.6699 14.0006 7.98513
190 1 38.9196 14.8417 8.40003
189 1 38.0692 15.1884 8.699
180 1 37.3147 16.4166 9.82299
187 1 37.175 14.6058 9.09169
186 1 36.869 15.4067 8.6808
156 1 32.0175 17.3359 6.95444
179 1 36.6588 16.9097 9.35988
177 1 38.1146 18.1783 9.9446
178 1 37.4352 17.6303 9.45534
176 1 38.0633 18.3559 8.93768
158 1 32.5325 17.3685 5.55348
157 1 32.5063 16.7753 6.41328
172 1 39.042 20.9861 8.37293
175 1 38.2474 19.2386 8.67252
174 1 38.2929 20.2164 8.48412
160 1 33.5867 17.8298 6.09037
159 1 33.323 16.913 5.79902
171 1 38.4316 21.7323 8.233
170 1 37.8717 21.4842 7.46029
173 1 39.1828 20.0639 8.5964
161 1 34.0958 18.2434 6.84392
167 1 35.9163 20.5591 7.00662
168 1 36.3967 21.0249 7.66978
169 1 37.2666 20.6724 7.42132
188 1 37.7521 15.124 9.60081
ITEM: TIMESTEP
8000000
ITEM: NUMBER OF ATOMS
100
ITEM: BOX BOUNDS ff ff ff
-5.0000000000000000e+01 5.0000000000000000e+01
-5.0000000000000000e+01 5.0000000000000000e+01
-5.0000000000000000e+01 5.0000000000000000e+01
ITEM: ATOMS id type x y z
5 1 -25.3092 -7.57081 -16.9567
6 1 -25.8197 -6.76412 -17.1014
3 1 -25.8334 -8.28844 -16.4027
4 1 -24.9622 -8.43936 -16.7887
7 1 -26.0222 -6.74965 -16.1516
2 1 -25.5885 -9.05724 -15.8445
1 1 -26.018 -9.2848 -15.0438
8 1 -26.197 -6.74455 -15.2076
9 1 -27.0862 -7.00505 -14.7589
10 1 -27.0929 -6.51859 -13.9464
11 1 -27.4279 -5.69154 -14.249
45 1 -30.4608 -9.8969 -14.7616
48 1 -28.1921 -9.9881 -15.2143
47 1 -28.7467 -10.6674 -14.9878
46 1 -29.5057 -10.0957 -14.9608
50 1 -26.6475 -9.24272 -14.3044
49 1 -27.4366 -9.70616 -14.69
12 1 -28.2751 -5.29221 -14.5452
13 1 -28.5376 -4.9081 -13.6128
44 1 -31.3937 -9.92778 -14.8612
43 1 -31.4744 -9.32255 -14.1544
42 1 -32.0924 -9.16119 -13.4482
15 1 -28.4768 -3.31294 -12.9575
14 1 -28.8338 -4.15144 -13.0803
35 1 -30.5522 -9.7719 -10.9396
36 1 -30.6878 -8.89247 -10.8231
37 1 -30.0629 -8.9294 -11.5495
38 1 -29.8436 -8.72257 -12.4509
39 1 -30.8417 -8.52676 -12.2483
40 1 -31.6794 -8.25646 -12.5344
41 1 -31.8953 -9.19498 -12.5522
17 1 -28.9953 -3.92166 -11.7382
18 1 -29.9671 -3.99621 -11.7924
16 1 -29.2745 -3.26062 -12.4176
34 1 -31.4624 -9.8819 -10.5377
32 1 -31.6631 -9.60796 -8.69586
33 1 -31.6958 -9.85475 -9.64191
31 1 -31.32 -10.3763 -8.20454
29 1 -29.9357 -9.89116 -9.05254
26 1 -29.459 -7.85627 -8.92627
28 1 -28.9152 -9.75649 -9.08046
22 1 -30.2512 -6.01059 -10.5266
23 1 -29.6438 -6.59299 -10.0233
19 1 -29.7054 -4.75508 -11.3055
21 1 -30.0672 -5.44331 -9.7507
20 1 -29.5218 -4.86865 -10.3146
30 1 -30.6094 -10.5566 -8.9419
27 1 -29.2311 -8.80018 -8.89861
24 1 -30.182 -6.50079 -9.21578
25 1 -29.4788 -6.94542 -8.69006
183 1 36.3141 16.9916 8.02734
184 1 35.7232 17.6045 8.47557
185 1 35.9954 18.0622 7.67919
187 1 37.4999 17.9249 6.70438
189 1 37.7708 19.2509 6.10779
190 1 38.7494 19.1869 6.32727
181 1 35.0878 17.2235 7.63775
182 1 35.6087 16.4583 7.59793
186 1 36.9213 18.1748 7.48961
188 1 37.4849 18.3484 5.81872
191 1 38.3923 18.3624 6.61582
152 1 39.5302 21.7246 8.95889
153 1 39.4016 22.3821 8.2417
180 1 34.242 17.3043 8.09109
179 1 34.7241 17.9994 8.64708
177 1 35.7509 18.7743 8.62577
193 1 39.3375 17.4432 6.93981
194 1 39.3339 17.6808 5.9767
174 1 37.4723 20.8743 8.17807
176 1 36.2117 19.5423 8.09994
151 1 39.477 20.9447 9.60309
192 1 38.4072 17.5138 7.11629
200 1 39.0785 20.8633 8.71889
154 1 38.4129 22.8224 8.34724
199 1 39.614 20.1144 8.83832
198 1 39.6104 19.4219 8.16247
155 1 37.674 22.3092 7.89714
156 1 37.0947 22.3414 7.12229
157 1 36.4709 23.0269 7.4073
158 1 37.0422 23.443 8.09039
160 1 37.0983 24.4605 9.645
178 1 35.3491 18.266 9.32507
195 1 39.9323 18.2345 6.46937
175 1 37.1446 19.9062 8.34215
172 1 37.2231 22.5284 9.02476
171 1 37.1798 23.0466 9.78138
197 1 39.8129 18.5513 8.42421
196 1 39.8384 18.3752 7.45215
173 1 37.3999 21.6213 8.787
170 1 37.6021 22.7472 10.5873
169 1 37.9171 23.5992 10.8811
166 1 38.415 25.7006 10.8274
168 1 37.9918 24.5088 11.2095
163 1 38.4121 24.6583 8.78387
167 1 37.548 25.3006 10.9181
162 1 37.6902 24.9023 8.05922
159 1 36.843 23.7764 8.99699
165 1 38.7365 25.3678 10.0192
164 1 38.8846 25.5024 9.0496
161 1 37.2017 25.0035 8.85452
ITEM: TIMESTEP
8100000
ITEM: NUMBER OF ATOMS
100
ITEM: BOX BOUNDS ff ff ff
-5.0000000000000000e+01 5.0000000000000000e+01
-5.0000000000000000e+01 5.0000000000000000e+01
-5.0000000000000000e+01 5.0000000000000000e+01
ITEM: ATOMS id type x y z
31 1 -34.069 -0.974618 -16.8329
37 1 -33.3609 -2.37436 -14.7067
36 1 -33.9225 -1.61087 -14.9923
34 1 -33.2175 -2.17492 -16.6798
29 1 -34.3807 0.839643 -16.9295
33 1 -33.4899 -2.56289 -17.5186
32 1 -34.0955 -1.84481 -17.149
26 1 -34.7337 1.53223 -15.1641
30 1 -34.5548 -0.123719 -16.8058
27 1 -33.9394 1.11173 -15.3831
45 1 -34.9712 -4.35255 -11.611
43 1 -34.8399 -3.64855 -13.1208
44 1 -34.7518 -4.45374 -12.5592
42 1 -34.9542 -3.3334 -12.2334
38 1 -33.1193 -3.08001 -14.0637
41 1 -35.072 -2.5389 -12.6957
40 1 -34.3166 -2.73764 -13.2917
39 1 -33.7793 -3.5158 -13.4103
35 1 -33.6961 -2.03785 -15.8689
23 1 -35.1943 0.183713 -13.201
22 1 -35.0963 0.636527 -12.3373
28 1 -33.8693 0.550582 -16.1558
24 1 -34.749 0.53419 -13.9738
25 1 -34.6292 1.48237 -14.18
46 1 -34.9925 -5.33565 -11.4918
48 1 -36.4422 -5.36228 -11.2829
47 1 -35.8516 -4.78574 -11.7461
49 1 -37.3534 -5.27135 -10.9569
50 1 -37.0702 -6.02254 -10.5116
21 1 -35.5652 1.457 -12.2099
19 1 -36.6817 2.88421 -12.5841
20 1 -36.0353 2.16587 -12.5963
9 1 -39.7399 -1.04641 -9.49699
3 1 -37.2003 -4.34801 -10.1231
2 1 -36.2631 -4.69642 -10.0023
1 1 -36.799 -5.44622 -9.76483
12 1 -39.5272 -0.319468 -11.3336
13 1 -39.0814 -0.17728 -10.5074
10 1 -39.8607 -1.01981 -10.4533
17 1 -37.6547 2.38376 -11.0122
18 1 -37.2712 2.42756 -11.9471
14 1 -38.512 0.617519 -10.4305
16 1 -37.5452 1.47546 -11.0129
15 1 -37.5554 0.629828 -10.5495
7 1 -38.5177 -1.74748 -9.73909
8 1 -39.3986 -1.9392 -9.43085
6 1 -37.8676 -2.14443 -10.2942
5 1 -38.0965 -3.15484 -10.0829
4 1 -37.6224 -3.7782 -9.49075
11 1 -40.1057 -0.0691995 -10.5816
168 1 31.2529 7.78921 11.0555
161 1 33.6657 4.53155 12.1622
159 1 32.6467 5.38971 12.4453
160 1 33.5839 5.47653 12.5216
170 1 30.1605 7.69984 12.5745
171 1 29.5092 7.20724 13.1051
167 1 32.0577 8.14437 11.627
163 1 33.1573 5.29716 11.1853
164 1 33.5335 5.97412 10.5596
158 1 32.5062 5.31023 13.3371
169 1 30.7543 7.59738 11.8692
166 1 32.6171 7.50428 11.2391
165 1 33.3725 6.9028 11.0807
157 1 32.7239 6.27227 13.4188
156 1 32.79 6.93382 12.6854
174 1 29.8941 8.10401 14.2016
162 1 32.9904 4.41045 11.5128
155 1 33.267 7.78082 12.847
154 1 33.7132 7.95465 13.7186
153 1 34.3174 7.88452 13.0248
152 1 34.1081 8.38958 12.2598
172 1 30.3705 7.09662 13.4174
173 1 29.7239 7.1991 14.1424
151 1 34.9523 8.81478 12.2275
200 1 35.5775 8.20426 12.6312
199 1 35.9257 8.86071 13.2593
195 1 36.1636 9.58781 14.1224
194 1 37.0461 9.57773 13.6754
198 1 35.0454 9.21196 13.6392
197 1 34.6394 10.0381 13.4985
196 1 35.6344 10.219 13.6108
192 1 36.7176 11.2616 13.3255
193 1 36.9684 10.5238 13.7808
175 1 30.7528 8.33006 14.5395
177 1 31.5971 9.49465 14.0827
176 1 30.8172 8.97526 13.7834
179 1 32.3176 7.83322 14.7452
178 1 31.814 8.55089 14.2005
185 1 32.1626 11.2076 16.0791
187 1 33.6567 11.1959 15.3812
186 1 32.996 11.5586 16.0213
188 1 33.6656 10.5323 14.6869
190 1 35.1549 11.5336 14.3175
191 1 35.9712 11.2266 13.9041
181 1 33.2469 8.50665 15.5383
180 1 32.7443 7.62056 15.5626
182 1 33.0569 9.22518 14.8954
183 1 33.0421 9.95527 15.549
184 1 32.1952 10.3909 15.5159
189 1 34.399 11.2026 14.6798
ITEM: TIMESTEP
8200000
ITEM: NUMBER OF ATOMS
100
ITEM: BOX BOUNDS ff ff ff
-5.0000000000000000e+01 5.0000000000000000e+01
-5.0000000000000000e+01 5.0000000000000000e+01
-5.0000000000000000e+01 5.0000000000000000e+01
ITEM: ATOMS id type x y z
10 1 -35.6924 1.58552 -7.72328
8 1 -35.5732 1.39947 -9.27863
9 1 -35.595 0.917905 -8.46473
7 1 -34.748 0.849859 -9.45737
6 1 -34.9161 -0.0338053 -9.73686
5 1 -34.25 -0.0983642 -9.06199
14 1 -36.1513 0.701613 -6.4774
15 1 -36.4028 0.553406 -5.45224
11 1 -36.5629 1.08123 -7.71541
12 1 -36.0031 0.250113 -7.89425
4 1 -33.4467 0.349795 -8.78592
3 1 -32.9215 0.345105 -7.96196
2 1 -33.5396 0.981996 -7.52241
45 1 -35.0593 3.63875 -7.37007
17 1 -36.4498 1.21504 -4.06172
16 1 -36.9761 0.698625 -4.71632
13 1 -35.7715 0.0386841 -6.97302
19 1 -35.3584 0.222112 -4.60321
48 1 -33.3672 4.0512 -7.99231
49 1 -33.002 3.21155 -7.71036
1 1 -33.7648 1.9076 -7.53855
50 1 -33.675 2.65837 -8.11619
47 1 -33.9059 3.46216 -7.34052
46 1 -34.4208 3.71243 -6.55253
44 1 -35.9344 3.39168 -7.60998
18 1 -35.7244 0.662234 -3.79253
25 1 -33.3467 -0.338376 -5.54775
21 1 -35.1262 1.42248 -5.44495
20 1 -34.6236 0.726402 -4.98366
23 1 -34.1728 0.577238 -6.03547
22 1 -34.3152 1.5147 -5.95404
24 1 -34.3212 -0.395495 -5.60045
41 1 -36.4539 3.09235 -5.91709
42 1 -36.5972 3.07481 -6.85769
43 1 -36.0249 3.84427 -6.70738
27 1 -32.9794 0.599754 -4.90762
28 1 -32.8093 0.188474 -4.07112
29 1 -32.0125 0.211759 -3.52798
26 1 -32.502 -0.26473 -5.01504
39 1 -36.8703 2.84673 -4.75765
30 1 -31.7616 1.04133 -3.92661
40 1 -37.1556 3.47755 -5.44265
35 1 -34.4879 2.87868 -4.20966
36 1 -35.4597 3.19082 -4.22019
38 1 -36.8198 2.98513 -3.82162
37 1 -36.0045 3.4734 -3.46244
31 1 -31.6698 1.46836 -4.76127
32 1 -32.041 2.26424 -5.06521
33 1 -32.968 2.51491 -4.9045
34 1 -33.5338 2.74564 -4.18727
188 1 36.6433 -8.66676 3.99929
186 1 35.0888 -8.08175 3.18366
187 1 35.9458 -8.22714 3.52252
189 1 37.5393 -8.30542 4.00759
185 1 34.1159 -7.91647 3.25114
191 1 36.7267 -7.41294 3.6688
190 1 37.4203 -7.89249 3.20581
183 1 34.501 -6.68469 4.66011
184 1 34.0973 -7.21181 3.98783
172 1 34.886 -2.81682 5.41257
171 1 34.6421 -3.44273 4.72737
170 1 34.728 -3.16286 3.83007
169 1 35.6524 -3.52022 3.90408
192 1 36.6061 -6.51626 4.10197
193 1 36.184 -6.89579 4.87896
194 1 35.4561 -6.42109 5.23753
195 1 36.1306 -5.70842 5.61814
182 1 33.8002 -6.17089 5.03634
181 1 32.875 -5.85604 5.1349
180 1 32.2518 -5.20424 5.50734
196 1 36.5775 -4.91554 5.2185
197 1 36.4143 -4.77994 6.1578
179 1 33.1595 -4.91742 5.82712
175 1 34.4959 -3.83183 6.43159
173 1 34.5276 -2.6314 6.22768
174 1 35.0429 -3.11158 6.87956
168 1 36.5504 -3.64361 4.23878
167 1 35.9654 -4.10095 4.77003
198 1 36.183 -5.0759 6.9979
199 1 36.1907 -4.55518 7.72911
151 1 37.4135 -4.49242 8.83431
200 1 36.5949 -4.1256 8.48683
178 1 33.7961 -4.89286 6.56971
177 1 34.7996 -4.89525 6.62233
176 1 34.3775 -4.51738 5.77175
166 1 35.999 -3.2395 5.16002
165 1 35.8813 -2.93348 6.08584
152 1 36.618 -4.73961 9.32704
154 1 34.9496 -5.04109 8.72021
153 1 35.9067 -5.05588 8.72446
155 1 35.3439 -4.24509 9.18042
156 1 35.3335 -3.34988 8.85407
162 1 35.2437 -1.46782 7.48458
164 1 36.3133 -2.17596 6.65064
163 1 35.718 -1.42362 6.62876
157 1 35.0297 -2.56031 9.36151
159 1 36.1735 -1.1244 9.96326
158 1 35.5449 -1.89014 9.84648
160 1 36.0283 -0.916939 8.98066
161 1 35.7992 -1.51382 8.29672
ITEM: TIMESTEP
8300000
ITEM: NUMBER OF ATOMS
100
ITEM: BOX BOUNDS ff ff ff
-5.0000000000000000e+01 5.0000000000000000e+01
-5.0000000000000000e+01 5.0000000000000000e+01
-5.0000000000000000e+01 5.0000000000000000e+01
ITEM: ATOMS id type x y z
44 1 -27.6678 5.71567 -14.5654
23 1 -34.032 2.99692 -13.1712
22 1 -33.4035 2.52546 -13.7208
21 1 -33.1829 1.95202 -12.9593
46 1 -28.2852 4.77078 -15.683
31 1 -33.3641 5.79777 -16.1411
45 1 -28.2706 5.65757 -15.3757
41 1 -28.96 7.65062 -14.3209
42 1 -28.3695 7.32888 -15.0494
43 1 -28.0058 6.65053 -14.4674
18 1 -33.3249 0.323512 -15.1521
17 1 -32.3744 0.144895 -15.3146
16 1 -31.7127 0.848495 -15.1389
15 1 -32.058 1.29248 -14.3391
14 1 -31.347 0.637826 -14.1154
13 1 -30.5172 0.177608 -14.1285
19 1 -33.1142 0.689315 -14.2931
20 1 -33.3858 1.18798 -13.4831
12 1 -29.6201 -0.0694342 -13.9813
11 1 -29.8974 0.460634 -13.2567
24 1 -34.2835 3.8926 -13.5883
25 1 -33.2681 3.69758 -13.7749
47 1 -27.5631 4.1469 -15.6997
30 1 -33.5675 4.83707 -16.3376
26 1 -32.7456 4.50613 -13.6162
27 1 -32.3222 4.44841 -14.4705
48 1 -27.4493 3.49328 -15.0764
49 1 -26.9805 4.13071 -14.4374
29 1 -32.975 4.58238 -15.6256
33 1 -32.2319 5.8389 -15.186
32 1 -33.0851 5.47149 -15.286
34 1 -32.0355 6.56036 -15.8861
38 1 -30.7907 8.63708 -14.5507
39 1 -30.344 8.39097 -13.7999
40 1 -29.4308 8.38938 -13.7649
10 1 -28.9073 0.643004 -13.212
9 1 -28.0369 0.430577 -12.8945
8 1 -28.042 0.96601 -12.0615
7 1 -27.6449 1.22115 -11.2017
50 1 -27.1813 3.83899 -13.5695
28 1 -32.0358 4.42408 -15.4417
35 1 -32.4523 7.16188 -15.2433
37 1 -31.2092 7.92008 -14.1082
36 1 -32.0283 7.69907 -14.554
4 1 -27.4026 2.87438 -11.8562
6 1 -27.1136 1.54691 -11.9433
5 1 -27.1381 2.31593 -12.5198
1 1 -27.4376 4.28399 -12.7788
2 1 -28.2834 4.55329 -12.3316
3 1 -27.9392 3.62591 -12.1543
153 1 41.6051 -1.3489 2.82036
152 1 41.7753 -0.556531 3.43129
151 1 40.86 -0.829399 3.42818
200 1 40.4656 -0.0645302 3.89666
199 1 41.2991 -0.103754 4.39036
154 1 41.9413 -1.9234 3.62791
155 1 42.1088 -2.4208 4.45611
157 1 40.9998 -3.40755 4.53283
156 1 41.1576 -2.5578 4.12575
158 1 41.3366 -4.07323 5.12737
198 1 41.7575 0.727268 4.67159
197 1 42.3325 0.0952193 4.19896
196 1 42.9605 0.809733 4.42218
194 1 43.6118 1.98127 4.57902
164 1 39.8935 -5.13515 7.75202
165 1 40.0116 -4.74978 8.59555
159 1 41.4178 -4.44534 6.01981
160 1 41.7842 -5.19792 6.52294
195 1 43.834 1.10516 4.2465
193 1 43.4167 2.23895 5.52648
192 1 43.9575 2.4406 6.33191
191 1 44.7429 1.87805 6.33083
190 1 44.406 0.962992 6.3912
189 1 43.8965 1.05737 7.24999
188 1 44.1156 0.559536 8.01875
166 1 40.6239 -4.32803 9.18935
167 1 41.5552 -4.23943 8.90883
168 1 42.1572 -3.82818 8.24342
169 1 41.7583 -2.97012 8.40478
163 1 40.7952 -5.38379 7.80689
170 1 41.8284 -2.02112 8.65794
162 1 41.6992 -4.96454 8.00349
161 1 42.3421 -4.84085 7.26964
174 1 41.718 -2.09908 10.4382
175 1 42.2788 -2.2479 11.1517
177 1 42.7798 -1.74793 12.1111
176 1 43.1819 -2.05199 11.3241
187 1 44.4168 0.808518 8.91444
186 1 45.2559 0.206357 8.95526
171 1 42.4993 -1.41963 9.13477
172 1 42.6976 -0.91086 9.86292
173 1 41.809 -1.23177 10.0123
178 1 43.3554 -1.838 12.9261
184 1 45.4793 -1.11238 9.48583
179 1 44.2067 -1.95498 12.5041
180 1 44.3116 -1.96739 11.5081
185 1 45.9425 -0.382454 9.07946
182 1 45.0294 -1.06969 10.4839
183 1 45.7401 -0.508401 10.1477
181 1 44.1239 -1.4226 10.8217
ITEM: TIMESTEP
8400000
ITEM: NUMBER OF ATOMS
100
ITEM: BOX BOUNDS ff ff ff
-5.0000000000000000e+01 5.0000000000000000e+01
-5.0000000000000000e+01 5.0000000000000000e+01
-5.0000000000000000e+01 5.0000000000000000e+01
ITEM: ATOMS id type x y z
17 1 -22.8835 5.90765 -7.25389
16 1 -23.756 6.23046 -7.18464
15 1 -23.4106 6.62388 -8.01498
12 1 -22.3495 7.93847 -8.67288
18 1 -22.4445 5.07587 -7.40414
25 1 -18.8512 5.66002 -6.84766
24 1 -19.7846 5.74556 -7.13852
19 1 -21.7943 4.75495 -8.07289
20 1 -21.5331 3.96727 -7.55209
22 1 -19.7627 3.99201 -7.43494
23 1 -19.7529 4.81807 -7.02094
13 1 -23.2131 7.58036 -8.39374
14 1 -22.6386 7.16928 -7.75793
21 1 -20.6808 4.41059 -7.50871
10 1 -22.0025 8.45529 -9.49367
11 1 -21.6957 8.58858 -8.5946
3 1 -23.6529 10.4099 -7.46218
4 1 -22.9231 10.852 -8.00123
5 1 -23.1074 10.8696 -8.92802
26 1 -18.9707 6.24253 -6.0721
9 1 -21.9134 9.46574 -9.82877
8 1 -21.2857 9.98354 -9.26485
2 1 -22.9336 10.3611 -6.84281
50 1 -21.7834 10.2432 -5.40793
6 1 -22.4801 11.3837 -9.50274
7 1 -21.7474 10.776 -9.32672
1 1 -22.6168 10.3581 -5.9786
32 1 -19.9755 3.12378 -4.48997
31 1 -19.4883 3.96961 -4.37646
28 1 -19.1624 5.80586 -4.50742
33 1 -20.8921 2.64909 -4.19174
34 1 -20.974 3.5511 -4.56802
27 1 -19.2194 6.48577 -5.22701
29 1 -19.1422 5.14352 -3.828
35 1 -21.2827 4.36328 -5.00398
36 1 -21.4632 4.79377 -4.18594
37 1 -21.6283 5.78062 -4.29684
42 1 -24.8365 8.27801 -5.46761
40 1 -23.4003 7.10074 -4.85054
39 1 -22.8884 6.34953 -5.30443
38 1 -21.9226 6.27206 -5.09923
44 1 -25.2563 9.55389 -4.06906
43 1 -24.9911 9.07317 -4.96367
41 1 -24.1746 7.65709 -5.03288
48 1 -23.0091 10.2842 -4.65957
49 1 -22.3234 10.8791 -4.98994
47 1 -23.4204 11.3037 -4.48254
30 1 -18.9563 4.26262 -3.65988
46 1 -24.2934 10.9226 -4.25265
45 1 -25.0413 10.4128 -4.02562
191 1 36.5321 -0.63362 7.52153
182 1 35.0349 3.51535 7.32519
183 1 34.9305 3.24389 6.40678
184 1 34.8882 2.42844 7.00661
180 1 36.4788 3.59073 8.30059
181 1 35.9044 3.08822 7.57325
178 1 37.7193 4.87922 8.33352
179 1 37.4267 3.94951 8.44345
187 1 34.6139 1.52424 7.24267
188 1 34.6797 1.05245 8.04998
192 1 36.1805 -1.12877 8.24169
190 1 35.7357 -0.17512 7.49637
186 1 35.2417 0.97061 6.62993
185 1 35.6198 1.83178 6.86771
189 1 35.3098 0.375132 8.18207
177 1 37.6737 5.61125 7.68585
176 1 38.2982 6.252 7.85315
194 1 34.5878 -0.655055 9.04831
193 1 35.3111 -0.723421 8.39473
195 1 34.5402 0.00895569 9.75317
199 1 34.0703 2.11382 9.26506
198 1 33.6884 1.51849 8.63217
197 1 33.8043 0.621448 9.02047
155 1 35.0813 5.87002 9.27928
154 1 35.3874 4.9863 9.05525
156 1 34.2821 5.68027 9.90685
159 1 35.3811 7.27415 10.1951
158 1 34.5945 6.80598 10.0831
175 1 38.6892 7.09217 8.17375
160 1 36.1677 6.75454 9.81915
161 1 36.569 7.11519 10.5992
174 1 39.3557 7.35188 8.8066
173 1 38.8759 8.25138 8.82118
172 1 38.5788 8.37532 9.72722
196 1 33.6041 0.16642 9.83583
200 1 34.8988 2.70681 9.31408
153 1 34.8158 4.43313 9.53222
152 1 34.2995 4.11656 10.2542
151 1 34.4359 3.21793 10.0234
157 1 33.8118 6.49142 9.59598
162 1 37.2537 7.84648 10.4102
164 1 36.854 7.74948 11.9837
165 1 37.499 7.05352 11.7902
163 1 36.9928 8.21279 11.1898
171 1 39.5296 8.16009 9.70711
169 1 39.0798 6.5135 10.3124
170 1 39.676 7.23709 9.83448
166 1 38.4228 7.02821 12.2216
168 1 38.8267 7.45012 10.5775
167 1 39.0746 7.10001 11.5372
ITEM: TIMESTEP
8500000
ITEM: NUMBER OF ATOMS
100
ITEM: BOX BOUNDS ff ff ff
-5.0000000000000000e+01 5.0000000000000000e+01
-5.0000000000000000e+01 5.0000000000000000e+01
-5.0000000000000000e+01 5.0000000000000000e+01
ITEM: ATOMS id type x y z
28 1 -29.6262 2.68376 -18.8297
27 1 -30.5548 2.46767 -18.5474
26 1 -30.4055 3.27347 -18.0135
29 1 -29.0334 3.07333 -19.4592
30 1 -29.5644 3.68351 -18.8988
31 1 -29.996 4.5265 -18.6576
32 1 -29.8652 4.94658 -17.7367
25 1 -30.9377 3.87839 -18.5254
24 1 -31.4317 4.76162 -18.3156
22 1 -30.9351 5.35555 -19.1712
23 1 -31.231 5.7524 -18.3713
20 1 -29.863 6.90338 -19.1259
21 1 -30.4504 6.1503 -19.1853
2 1 -26.1984 8.50897 -18.7015
3 1 -26.9011 7.9625 -19.1262
5 1 -27.8662 8.51837 -19.961
4 1 -27.5298 7.66102 -19.8014
33 1 -30.0111 4.18156 -17.2453
34 1 -29.5751 4.72759 -16.5613
36 1 -28.1226 5.91552 -16.7147
35 1 -28.7168 5.18175 -16.5509
19 1 -29.6063 7.59441 -18.4531
17 1 -28.5476 8.14485 -17.7861
18 1 -29.5115 8.23323 -17.7573
16 1 -28.6882 7.68729 -16.9498
15 1 -27.9907 8.19319 -16.3807
1 1 -25.5358 8.40459 -19.3903
50 1 -25.2008 8.85563 -18.5771
47 1 -24.8261 8.52282 -16.2016
49 1 -25.5289 8.76101 -17.6704
14 1 -28.6297 8.55223 -15.7712
13 1 -28.5163 8.98562 -14.9171
12 1 -27.7642 9.15272 -15.5123
8 1 -28.3425 9.83658 -18.0856
7 1 -28.7498 9.40153 -18.8326
6 1 -28.3432 8.57336 -19.0359
38 1 -26.4382 5.58783 -17.4702
39 1 -26.0687 5.41802 -16.6005
37 1 -27.1884 5.75915 -16.988
40 1 -25.823 5.59426 -15.6771
46 1 -24.1029 7.91553 -16.0509
45 1 -24.7959 7.37029 -16.4204
44 1 -25.0801 6.49559 -16.5976
48 1 -25.6289 8.84192 -16.601
11 1 -27.0484 9.49227 -16.0693
9 1 -27.7988 9.28931 -17.4586
10 1 -26.9925 9.11589 -16.9899
41 1 -26.4606 6.28008 -15.8135
42 1 -26.7196 7.02892 -16.3384
43 1 -26.0206 6.57221 -16.7639
155 1 41.5971 -7.9664 0.262562
154 1 40.8823 -7.29805 0.278338
156 1 41.784 -8.88798 -0.090445
152 1 41.7939 -6.5287 -0.786869
153 1 41.6987 -6.79106 0.115547
161 1 39.3361 -10.3104 0.0534413
158 1 40.7451 -9.54775 0.523544
157 1 40.8463 -8.7015 -0.00666428
192 1 38.6881 -4.78644 2.76493
195 1 38.7975 -7.02923 1.55718
194 1 38.6048 -6.11415 1.59723
200 1 40.9876 -6.13076 0.545099
151 1 40.9628 -6.27764 -0.402657
199 1 40.7385 -6.71609 1.33795
164 1 40.5633 -11.5631 -0.85405
163 1 39.7403 -11.3519 -1.18866
160 1 39.2367 -9.40203 -0.195156
162 1 39.444 -10.4332 -0.894069
159 1 40.2235 -9.80117 -0.275254
181 1 37.1099 -8.10485 6.23948
180 1 37.1615 -8.74526 5.51719
196 1 39.4226 -7.51393 2.18869
193 1 38.8483 -5.68233 2.46463
179 1 37.7055 -9.17127 4.84665
191 1 37.8084 -4.49699 2.76456
190 1 36.9364 -4.39135 3.11746
198 1 39.8606 -6.47437 1.58338
197 1 40.0996 -6.86857 2.46777
165 1 41.478 -11.9633 -0.879994
166 1 42.2739 -12.2127 -0.454935
167 1 42.2685 -11.6966 0.457095
168 1 43.0533 -11.1615 0.550015
169 1 42.4124 -11.0489 1.25376
170 1 41.6895 -10.4036 1.01497
172 1 41.4732 -9.81162 2.2739
182 1 37.4128 -7.21095 6.38598
174 1 40.1196 -9.21748 2.62576
175 1 39.7116 -9.52181 3.43634
176 1 38.9283 -9.36296 4.04953
173 1 41.0256 -8.95945 2.35796
186 1 37.2138 -6.13288 3.98359
183 1 37.2781 -6.61529 5.65649
178 1 38.4507 -8.57111 4.72905
177 1 38.9758 -8.40724 3.94424
188 1 36.1499 -5.52251 2.97527
187 1 36.9204 -6.12455 3.07255
189 1 36.7112 -5.13135 3.65806
171 1 40.9848 -10.388 1.75898
185 1 36.6527 -6.40951 4.74628
184 1 36.8445 -5.74371 5.41663
ITEM: TIMESTEP
8600000
ITEM: NUMBER OF ATOMS
100
ITEM: BOX BOUNDS ff ff ff
-5.0000000000000000e+01 5.0000000000000000e+01
-5.0000000000000000e+01 5.0000000000000000e+01
-5.0000000000000000e+01 5.0000000000000000e+01
ITEM: ATOMS id type x y z
2 1 -45.7094 2.42773 -15.9996
3 1 -46.084 3.2171 -16.4913
4 1 -46.8955 3.23941 -15.9228
1 1 -44.9389 2.91184 -16.1986
6 1 -47.6318 2.68056 -14.9273
7 1 -48.0974 2.33778 -15.7148
5 1 -47.6969 3.5213 -15.3478
41 1 -42.7806 -0.420588 -12.1463
40 1 -42.8817 -0.105444 -11.2754
42 1 -43.1688 -0.343897 -12.9792
43 1 -43.9077 0.00446261 -12.5468
48 1 -44.9077 0.99817 -15.0133
49 1 -45.3389 1.85248 -15.1909
50 1 -44.5515 2.32551 -15.5681
44 1 -44.8175 0.377453 -12.6312
45 1 -44.9494 0.967555 -13.4044
8 1 -48.6784 2.16235 -14.9994
10 1 -48.6367 2.31099 -13.145
9 1 -48.7051 2.02574 -14.0753
11 1 -49.341 2.69467 -12.6883
38 1 -42.7356 -1.23415 -10.3718
39 1 -43.3021 -0.903726 -11.1157
46 1 -44.5209 0.419171 -14.0901
47 1 -45.3742 0.70992 -14.237
13 1 -48.4892 3.8319 -12.6727
16 1 -46.5545 3.53955 -11.9555
12 1 -49.0886 3.35891 -13.3252
14 1 -47.9629 3.3549 -13.2364
15 1 -47.5331 3.4074 -12.315
37 1 -42.9798 -2.21902 -10.4128
26 1 -43.8715 1.57735 -10.8632
28 1 -44.516 0.299341 -10.8683
27 1 -44.7732 1.20039 -10.7084
18 1 -45.3419 2.77972 -10.8912
19 1 -45.868 2.71481 -10.0634
21 1 -45.9404 3.29985 -9.05991
23 1 -44.7656 3.75995 -10.2582
25 1 -43.4532 2.44622 -10.8265
17 1 -45.7587 2.97363 -11.7371
36 1 -43.2593 -2.10256 -9.50147
34 1 -44.7443 -2.40236 -9.42113
35 1 -44.0974 -1.90135 -9.97428
33 1 -43.9364 -2.6434 -8.91913
30 1 -44.495 -0.17051 -9.80489
29 1 -43.6878 0.0463202 -10.346
20 1 -46.2775 3.58369 -9.97229
22 1 -45.0924 3.68296 -9.31606
31 1 -43.9854 -0.957323 -9.64313
24 1 -44.1671 3.00645 -10.4244
32 1 -44.0877 -1.69961 -8.96957
161 1 32.8318 -8.21687 -0.842706
163 1 30.9809 -8.04423 -0.705132
162 1 31.9207 -7.97161 -0.866858
164 1 31.2467 -7.60081 0.150762
165 1 32.0688 -7.23502 0.506507
159 1 33.3814 -6.85952 0.103641
160 1 32.8704 -7.22592 -0.683707
158 1 34.0331 -6.6898 0.754639
157 1 33.2552 -6.92083 1.2102
166 1 31.7657 -6.34896 0.291467
167 1 32.1525 -5.45828 0.348351
168 1 32.8756 -4.81426 0.412469
156 1 32.7674 -6.73727 2.08509
154 1 31.4688 -6.69916 2.68996
155 1 31.9761 -7.34194 2.17786
152 1 32.7864 -6.16104 4.15071
173 1 35.2115 -3.1219 0.734958
177 1 36.2607 -3.13085 2.45095
178 1 37.1956 -3.32598 2.5622
180 1 37.8835 -3.64104 1.41554
169 1 33.8377 -4.94895 0.259292
170 1 33.4575 -4.26884 -0.287821
179 1 37.8275 -2.92853 2.01319
199 1 35.0802 -7.03783 4.21069
151 1 33.632 -6.13154 3.75272
200 1 34.4779 -6.27684 4.06385
193 1 39.0206 -6.23945 4.71515
194 1 38.1821 -6.18554 5.24632
153 1 32.2313 -6.50506 3.34807
175 1 35.2179 -3.00202 1.9543
189 1 40.6998 -6.33178 2.70449
186 1 39.8234 -4.21556 3.87049
187 1 40.5331 -4.82542 3.49746
171 1 34.1776 -3.68222 0.0228504
172 1 34.8496 -3.01294 -0.113389
174 1 34.7403 -2.43682 1.2717
176 1 36.1111 -2.76036 1.59371
184 1 38.7081 -4.41443 3.66486
185 1 39.1372 -3.56267 3.70944
183 1 38.5785 -5.13491 3.03608
181 1 38.1487 -4.5231 1.24976
182 1 38.4456 -4.9061 2.09714
198 1 35.1371 -7.71771 4.80348
197 1 35.9872 -7.23989 4.82009
195 1 37.3095 -6.25936 5.65303
196 1 36.7826 -6.5977 4.90766
192 1 38.9532 -6.59161 3.8167
190 1 40.313 -6.06157 3.53592
191 1 39.386 -5.88051 3.42886
188 1 40.6752 -5.38314 2.77403
ITEM: TIMESTEP
8700000
ITEM: NUMBER OF ATOMS
100
ITEM: BOX BOUNDS ff ff ff
-5.0000000000000000e+01 5.0000000000000000e+01
-5.0000000000000000e+01 5.0000000000000000e+01
-5.0000000000000000e+01 5.0000000000000000e+01
ITEM: ATOMS id type x y z
14 1 -43.2017 7.16479 -8.57748
47 1 -41.0425 3.60383 -7.6952
13 1 -42.5499 6.99948 -7.91534
45 1 -40.7215 5.30645 -8.12471
44 1 -40.1594 5.43774 -7.37948
46 1 -41.3506 4.54803 -7.98585
17 1 -43.9417 6.07145 -7.50195
15 1 -44.1083 6.99229 -8.32194
16 1 -44.6381 6.16261 -8.19074
48 1 -40.7108 2.62292 -7.76416
49 1 -39.7556 2.43809 -7.76095
50 1 -38.9067 2.88488 -7.69604
12 1 -41.7262 6.91551 -7.44638
11 1 -41.0855 7.48613 -7.76934
9 1 -40.1523 7.09633 -7.20246
8 1 -39.3793 7.14548 -7.68937
10 1 -40.8957 7.49478 -6.78409
7 1 -38.3564 7.18086 -7.78274
40 1 -38.7974 3.98241 -4.86208
42 1 -39.5223 4.61796 -6.53501
43 1 -39.3994 5.52888 -6.79316
41 1 -39.1342 4.34863 -5.69768
19 1 -42.1644 5.43055 -7.78781
1 1 -38.4583 3.54629 -7.1832
2 1 -38.0468 4.27241 -7.68539
18 1 -43.0142 5.80475 -7.62056
20 1 -42.2326 6.00179 -6.97092
5 1 -37.2677 6.3015 -8.14447
4 1 -37.0794 5.31172 -8.0819
6 1 -38.2091 6.31818 -8.27833
38 1 -38.2782 4.10193 -3.73198
39 1 -37.9443 4.38614 -4.60424
22 1 -42.9567 6.43623 -6.03447
21 1 -41.9453 6.07549 -6.04673
23 1 -42.4397 6.77517 -5.33226
3 1 -37.5278 4.97166 -7.32582
37 1 -38.5282 4.64049 -2.93331
36 1 -38.1091 5.54963 -3.04037
25 1 -42.6523 6.70485 -4.07635
24 1 -41.9119 7.00814 -4.59232
31 1 -41.1424 6.04323 -1.76243
33 1 -39.9106 5.43422 -1.57096
32 1 -40.6615 5.2355 -2.12165
35 1 -38.858 5.89441 -2.45356
34 1 -39.7493 5.7999 -2.47898
27 1 -42.1296 7.69138 -3.10446
28 1 -41.6814 6.89067 -3.44509
29 1 -40.9249 6.78297 -2.87005
30 1 -41.51 6.77753 -2.12243
26 1 -42.7674 7.6175 -3.8963
151 1 38.6438 3.63699 5.38317
152 1 39.3859 4.31227 5.13371
162 1 39.6098 0.180112 4.75359
199 1 36.8855 3.95882 5.75073
198 1 37.136 3.20756 6.30169
160 1 40.845 0.407917 4.55299
161 1 40.1093 0.558031 3.98335
200 1 37.6399 3.64264 5.22841
159 1 41.3807 1.1077 5.04444
155 1 41.0388 3.11319 5.27727
158 1 41.367 2.00033 4.62352
157 1 41.798 2.59189 4.02198
153 1 39.7652 3.84155 4.38435
156 1 41.9384 2.94418 4.97911
154 1 40.1569 3.64681 5.27473
197 1 36.5799 2.86235 7.01422
163 1 39.7562 0.587337 5.62134
164 1 40.2117 0.190825 6.37654
196 1 37.213 3.02421 7.69352
165 1 39.5837 -0.131382 7.10663
194 1 36.6793 3.14086 8.83709
193 1 36.1345 2.70498 9.52705
195 1 37.0356 3.85712 8.23205
166 1 39.7488 0.152697 8.03227
167 1 40.3061 -0.17214 8.76111
192 1 35.3228 2.47482 9.94266
168 1 40.7453 0.658947 8.62408
191 1 35.9994 1.88419 10.4441
171 1 41.423 1.94852 8.81476
169 1 40.4617 1.23677 7.94147
170 1 40.9595 2.0983 7.96912
186 1 35.0555 0.652199 12.9281
183 1 35.909 1.94217 12.1569
185 1 34.7478 1.59397 13.0149
188 1 36.253 0.350189 11.8054
187 1 35.669 -0.0102944 12.4731
184 1 34.9424 2.24056 12.3345
172 1 40.5643 1.92776 9.225
173 1 40.8393 2.58099 9.90233
175 1 40.9817 2.05786 11.218
189 1 35.9482 0.684385 10.9531
190 1 35.5215 1.4612 11.1804
182 1 36.5886 1.7675 12.8315
181 1 37.3235 1.25482 13.1342
174 1 41.2812 2.77067 10.7118
176 1 40.4576 2.36603 11.9898
177 1 39.6685 2.08631 12.5284
180 1 37.9988 1.74138 13.5972
179 1 38.8733 2.12689 13.8301
178 1 38.9811 1.67178 13.0285
ITEM: TIMESTEP
8800000
ITEM: NUMBER OF ATOMS
100
ITEM: BOX BOUNDS ff ff ff
-5.0000000000000000e+01 5.0000000000000000e+01
-5.0000000000000000e+01 5.0000000000000000e+01
-5.0000000000000000e+01 5.0000000000000000e+01
ITEM: ATOMS id type x y z
14 1 -36.8715 4.53783 -11.7545
15 1 -37.7806 4.88759 -11.5974
12 1 -36.7699 4.1138 -10.5773
13 1 -36.8811 4.99711 -10.8665
17 1 -38.376 6.25057 -10.4371
16 1 -38.0081 5.52938 -10.879
18 1 -38.5601 7.03052 -9.86019
11 1 -36.165 3.64018 -11.159
10 1 -35.5749 4.21094 -10.5509
9 1 -35.5115 4.3539 -9.58503
8 1 -34.8761 4.09794 -8.92543
21 1 -37.9487 7.88061 -7.59853
20 1 -37.4334 7.56203 -8.32199
7 1 -33.9795 4.27668 -8.8037
6 1 -33.5093 4.51301 -9.62452
5 1 -33.1706 4.98553 -8.85926
4 1 -32.3675 5.32088 -8.38193
19 1 -38.0436 7.39293 -9.09821
3 1 -31.6394 5.93637 -8.4134
2 1 -31.664 6.68572 -8.97384
1 1 -31.9181 7.61629 -8.60753
22 1 -37.5813 8.6504 -7.0773
24 1 -36.3196 9.63366 -6.63757
23 1 -37.1852 9.5345 -7.03389
25 1 -36.2158 10.5422 -6.96865
49 1 -31.9553 8.54478 -7.47513
50 1 -31.7936 8.54861 -8.40918
48 1 -31.4914 8.22226 -6.73417
28 1 -34.5656 10.7007 -6.2171
26 1 -36.01 11.4854 -7.19569
27 1 -35.3276 11.0026 -6.70154
39 1 -33.7039 5.34537 -5.06433
40 1 -32.9418 5.66143 -5.48308
32 1 -34.6843 7.97735 -5.67768
33 1 -35.026 7.32227 -6.30006
46 1 -30.7682 6.95912 -6.08552
41 1 -32.5326 6.30183 -4.91386
30 1 -34.9043 9.53683 -6.48647
29 1 -34.7307 9.98193 -5.62899
31 1 -35.207 8.66125 -6.16649
45 1 -30.3919 6.58362 -5.28781
44 1 -30.2452 5.71495 -4.92624
47 1 -30.6592 7.81108 -6.56395
36 1 -35.7723 6.22702 -6.07333
38 1 -34.6506 5.27034 -5.16598
37 1 -35.3901 5.8798 -5.19588
34 1 -35.8279 7.8503 -6.128
35 1 -36.3242 7.03974 -6.15965
43 1 -31.1331 5.68066 -5.33186
42 1 -31.6137 6.32365 -4.77887
161 1 44.2837 3.13954 12.9274
157 1 42.9131 0.723829 11.6752
158 1 43.4559 1.00456 12.5524
159 1 43.1 1.80345 12.1528
160 1 43.7932 2.48372 12.3153
162 1 44.5853 3.18976 12.077
163 1 44.6619 2.93756 11.12
174 1 45.9027 4.20689 10.5006
178 1 46.082 5.68061 8.55502
179 1 46.8894 5.14733 8.35961
184 1 46.5588 5.87319 11.2289
189 1 46.5927 6.10891 13.6128
190 1 46.6598 5.94847 14.5527
188 1 46.6631 6.38033 12.7129
164 1 44.9313 3.69355 10.5433
165 1 44.8853 2.7913 10.1367
156 1 42.0605 1.10522 11.3652
155 1 41.8677 0.447193 12.0495
166 1 45.3297 1.99782 10.345
198 1 42.9899 4.24331 13.7346
197 1 43.6043 3.55556 14.175
172 1 46.6133 3.30688 11.4683
173 1 46.2566 4.23326 11.3406
194 1 45.1244 4.67835 12.4895
195 1 44.8687 3.97975 13.1819
196 1 44.5038 3.89914 14.1212
175 1 45.29 4.93892 10.4687
176 1 45.4641 4.8688 9.56524
177 1 45.1757 5.27983 8.69223
180 1 47.6346 4.57494 8.57075
181 1 47.2877 4.06966 9.24871
193 1 45.7663 4.89579 13.1384
192 1 45.2745 5.56066 13.6544
191 1 45.9022 5.40931 14.3204
183 1 47.1931 5.44764 10.6283
182 1 47.3935 4.70556 10.0129
187 1 46.92 5.57929 12.2799
185 1 45.6 6.01981 11.2267
186 1 45.9188 5.53236 12.0525
154 1 40.9525 0.478766 12.222
153 1 40.9358 1.40476 11.963
152 1 41.0867 1.87474 12.779
151 1 41.5559 1.91326 13.6082
167 1 46.233 1.84934 10.4691
200 1 42.3476 2.43572 13.3751
199 1 42.7581 3.29786 13.5928
168 1 47.1374 1.54419 10.4974
169 1 47.7837 2.24619 10.7579
170 1 47.758 3.14158 11.0659
171 1 47.2949 4.01336 11.2536
ITEM: TIMESTEP
8900000
ITEM: NUMBER OF ATOMS
100
ITEM: BOX BOUNDS ff ff ff
-5.0000000000000000e+01 5.0000000000000000e+01
-5.0000000000000000e+01 5.0000000000000000e+01
-5.0000000000000000e+01 5.0000000000000000e+01
ITEM: ATOMS id type x y z
18 1 -32.3941 6.12876 -5.12498
14 1 -32.0573 7.16654 -3.59431
16 1 -32.7296 6.36697 -4.15461
15 1 -31.8028 6.23495 -3.89782
17 1 -33.2615 5.78649 -4.68512
10 1 -33.0468 9.74495 -2.62678
21 1 -32.4459 5.02775 -5.39863
20 1 -31.845 5.3536 -4.65024
26 1 -34.7767 4.309 -3.81004
25 1 -34.2348 3.53445 -4.06013
24 1 -34.3664 3.12972 -4.85939
19 1 -31.5549 5.69489 -5.46171
13 1 -31.7398 8.05338 -3.35988
12 1 -31.5008 9.00724 -3.31113
11 1 -32.2202 9.38807 -2.78449
8 1 -33.3326 10.5652 -4.07289
7 1 -33.6392 11.4677 -4.39569
9 1 -33.5908 10.1847 -3.25363
23 1 -33.6502 3.74262 -4.79863
30 1 -35.4281 5.41624 -2.01058
22 1 -33.2474 4.44374 -5.27348
27 1 -34.6761 5.15522 -4.24347
28 1 -35.0129 5.98791 -3.7997
29 1 -34.9801 5.57485 -2.94499
3 1 -35.904 10.5941 -3.66199
2 1 -36.2914 11.3523 -3.25103
40 1 -36.9937 8.35671 3.00161
4 1 -36.1184 10.3006 -4.50414
6 1 -34.665 11.4919 -4.35836
5 1 -35.4077 10.9024 -4.6545
34 1 -35.4465 6.75093 0.389319
33 1 -35.4428 5.78316 0.382642
32 1 -35.2277 5.66384 -0.493996
31 1 -35.8868 5.31632 -1.16226
35 1 -35.3066 6.9003 1.30216
37 1 -36.6054 7.96212 1.83018
50 1 -36.4176 10.8073 -1.74257
1 1 -36.8458 10.9967 -2.54873
39 1 -36.8701 7.49208 3.49409
38 1 -36.481 7.34732 2.59945
49 1 -36.4161 9.92329 -1.32345
41 1 -36.8351 8.88861 2.27126
42 1 -36.9672 9.77099 1.80788
43 1 -36.2643 10.4368 1.80136
36 1 -36.2239 7.11066 1.65457
48 1 -36.9484 9.18759 -0.973926
47 1 -37.4778 8.95513 -0.143779
44 1 -37.0284 10.804 1.29656
46 1 -37.3821 9.86588 -0.142102
45 1 -37.5179 10.2778 0.725604
174 1 42.3815 8.83523 4.9701
176 1 41.1166 8.03426 4.49816
175 1 42.0067 8.25761 4.26764
173 1 42.712 9.60065 5.49925
179 1 40.0273 6.48063 4.77246
178 1 40.8578 6.7908 4.40085
177 1 40.395 7.56283 4.14067
172 1 42.6505 10.2114 6.24788
171 1 41.8412 9.78476 6.29831
167 1 40.0108 9.48317 7.16714
169 1 40.7521 9.87781 6.16791
168 1 40.8142 10.0823 7.11733
185 1 37.4883 8.18367 6.84607
181 1 39.5874 7.12806 5.60224
180 1 39.1319 6.90151 4.73801
170 1 41.3708 10.6051 6.17719
162 1 39.9928 10.309 9.34504
166 1 39.544 10.0267 7.74993
165 1 38.9113 9.31187 7.57903
161 1 39.3505 10.8004 9.8966
194 1 34.6994 6.37944 11.1442
195 1 34.7066 7.14425 11.6324
186 1 37.0542 9.01094 7.09697
187 1 36.1641 8.72809 7.59088
188 1 35.5153 8.20188 8.06336
184 1 38.2253 8.23006 6.30487
183 1 38.7531 7.56923 6.84847
182 1 39.3161 6.84223 6.50257
164 1 38.8706 9.35825 8.52839
163 1 39.2297 10.203 8.81612
159 1 38.5668 10.0491 11.3093
158 1 38.3545 10.0056 12.2632
160 1 38.9934 10.1606 10.4919
192 1 34.9027 6.74694 9.60577
190 1 36.2821 7.64479 8.96552
189 1 36.3466 7.71662 7.98956
196 1 33.8049 7.24088 11.8519
197 1 32.834 7.09505 11.6364
193 1 34.4258 6.89968 10.3633
191 1 35.716 6.86113 9.10033
198 1 32.2117 7.75897 11.7565
151 1 34.212 8.56818 11.6708
152 1 35.1773 8.51422 11.8074
155 1 37.1966 8.62812 11.4445
156 1 36.8722 9.548 11.4772
157 1 37.4942 9.57768 12.2336
199 1 32.7458 7.9935 10.9268
200 1 33.3326 8.20583 11.5773
153 1 35.6537 8.90987 11.0664
154 1 36.2454 8.43066 11.6998
ITEM: TIMESTEP
9000000
ITEM: NUMBER OF ATOMS
100
ITEM: BOX BOUNDS ff ff ff
-5.0000000000000000e+01 5.0000000000000000e+01
-5.0000000000000000e+01 5.0000000000000000e+01
-5.0000000000000000e+01 5.0000000000000000e+01
ITEM: ATOMS id type x y z
163 1 40.8823 -1.34266 5.29209
162 1 40.6661 -0.434042 5.12765
160 1 40.8363 0.643161 3.59615
161 1 40.8726 -0.047256 4.25519
179 1 40.21 3.29908 4.33771
180 1 40.6084 3.11528 5.22428
181 1 41.1505 3.79775 4.85412
182 1 41.6508 4.57403 4.59267
183 1 42.0249 5.3608 4.98106
185 1 42.0912 7.17445 4.72596
165 1 41.4326 -2.94802 6.05996
168 1 40.2991 -1.12841 6.93666
164 1 41.341 -2.01164 5.8399
170 1 39.3428 -0.210747 6.67667
159 1 40.8353 1.25041 4.32909
158 1 41.2918 1.13642 5.13567
157 1 41.7838 1.78821 5.74772
156 1 40.9538 1.95855 6.33066
175 1 39.1776 0.810023 4.35417
176 1 39.7335 1.13855 3.6729
177 1 39.8306 1.89522 3.10842
173 1 39.1774 -0.246095 4.83402
174 1 38.424 0.241879 4.48745
178 1 40.2645 2.60602 3.66188
184 1 42.3808 6.26697 4.82711
187 1 42.7807 7.74391 5.67118
186 1 42.28 6.94833 5.67641
166 1 41.3728 -2.58989 6.94988
167 1 41.0266 -1.7117 6.74384
169 1 40.0643 -0.280467 7.27601
171 1 39.2748 0.742836 6.26306
172 1 38.8946 0.0253163 5.69196
155 1 40.9206 1.84034 7.31465
154 1 41.7827 2.10993 6.95339
151 1 41.9622 2.36972 8.29581
152 1 42.6345 1.79502 7.94525
153 1 42.7171 1.96777 7.05387
200 1 42.2521 3.24282 8.59851
199 1 41.8331 3.97104 9.03228
198 1 40.9085 3.90224 9.15355
188 1 42.5748 8.38758 6.36043
189 1 41.8559 8.36755 7.04101
196 1 40.6344 4.61639 8.01675
197 1 40.7134 4.84909 8.96576
194 1 41.5641 4.85098 7.81892
195 1 41.3136 3.91553 7.9997
191 1 40.6811 6.92412 6.94896
192 1 41.3836 6.35034 7.13287
193 1 41.0402 5.49996 7.33292
190 1 41.3971 7.54174 7.14113
7 1 -33.537 8.46402 10.7717
6 1 -32.8727 7.97565 11.3347
5 1 -32.8162 7.7815 12.2888
32 1 -42.5188 9.96188 8.94332
33 1 -42.5518 10.9407 8.78368
34 1 -41.6593 11.1415 8.45108
37 1 -39.9115 11.9048 9.31512
4 1 -33.1431 7.87957 13.1997
28 1 -42.1714 8.7968 11.1206
27 1 -42.4248 8.16676 11.8089
26 1 -42.1566 8.44047 12.675
29 1 -41.6289 9.4113 10.6152
30 1 -41.5407 9.25335 9.63746
31 1 -42.0534 9.06512 8.78368
25 1 -42.0288 9.29891 12.3109
23 1 -40.5384 9.33405 13.1827
24 1 -41.5239 9.55773 13.1619
38 1 -39.216 12.1313 9.91009
11 1 -34.6299 7.57066 13.5229
8 1 -34.0543 7.72942 11.139
10 1 -34.1233 7.37634 12.7584
9 1 -33.6882 7.29374 11.9057
22 1 -39.8966 9.74641 12.5957
35 1 -40.7771 11.3744 8.69471
36 1 -40.4409 11.0946 9.51909
40 1 -38.8727 11.4528 11.5554
39 1 -39.4049 11.8448 10.8616
3 1 -32.4449 7.98483 13.8728
2 1 -32.1265 7.76064 14.7735
12 1 -34.315 8.43999 13.7466
15 1 -36.1109 8.34323 12.6072
14 1 -35.8123 8.85474 13.4069
13 1 -34.8622 9.14937 13.3266
21 1 -38.9017 9.85042 12.599
41 1 -38.2869 10.7468 11.7532
42 1 -37.7952 11.2647 12.409
1 1 -32.2108 8.70155 14.5169
50 1 -32.6405 9.39181 14.0379
44 1 -36.5747 10.7332 12.47
43 1 -36.8982 11.6169 12.2353
48 1 -33.927 9.75057 12.8038
47 1 -34.6991 10.1819 13.1249
46 1 -35.2275 10.8559 12.5408
49 1 -33.4529 9.51967 13.611
16 1 -37.01 8.72608 12.7408
17 1 -37.5268 9.02548 13.4465
20 1 -38.3045 9.59872 13.3037
18 1 -38.0249 9.18454 14.2752
19 1 -38.7885 9.78285 14.0892
45 1 -35.9126 10.8233 13.1809
ITEM: TIMESTEP
9100000
ITEM: NUMBER OF ATOMS
100
ITEM: BOX BOUNDS ff ff ff
-5.0000000000000000e+01 5.0000000000000000e+01
-5.0000000000000000e+01 5.0000000000000000e+01
-5.0000000000000000e+01 5.0000000000000000e+01
ITEM: ATOMS id type x y z
3 1 -30.3801 9.48627 -1.05063
2 1 -29.5556 9.04711 -1.07772
1 1 -28.9473 8.66692 -0.468528
50 1 -28.3599 8.73037 -1.25797
199 1 44.286 0.381 -0.616482
196 1 45.4679 0.78459 0.437953
197 1 45.5221 1.32509 -0.354204
198 1 44.5189 1.22213 -0.385245
195 1 45.3391 1.04809 1.37296
194 1 44.9558 1.85196 1.04459
48 1 -27.5799 8.10944 -1.59385
47 1 -26.8183 7.52798 -1.62168
49 1 -27.9516 8.11224 -0.701137
8 1 -31.8144 8.09155 -0.0209751
4 1 -30.8355 8.89485 -1.55018
45 1 -27.3118 6.94399 -0.0323042
46 1 -27.285 7.0269 -0.934003
7 1 -31.3355 8.8003 -0.453315
6 1 -30.4632 8.4071 -0.499511
152 1 43.7682 0.638338 1.33271
151 1 43.1605 0.637944 0.626883
200 1 43.3637 0.560259 -0.27846
193 1 44.5258 2.32921 0.400361
192 1 43.7193 1.90878 0.48719
190 1 42.358 2.78156 1.29863
191 1 43.021 2.13885 1.10849
189 1 43.1199 3.31703 1.02182
9 1 -32.4804 7.87709 0.612154
5 1 -30.8756 7.9849 -1.23767
10 1 -31.8047 8.49748 0.989241
11 1 -32.4692 8.93996 1.49402
44 1 -28.1365 6.73762 0.468571
43 1 -29.0169 7.07495 0.334889
12 1 -32.5905 9.94429 1.44672
13 1 -33.1462 10.639 1.05775
14 1 -33.6662 11.4561 1.3068
155 1 41.8683 1.45246 1.94059
154 1 42.8529 1.63275 1.99718
156 1 42.0236 1.25694 1.03536
153 1 43.7057 1.53625 1.71331
163 1 44.3496 -1.45259 3.07974
162 1 43.8873 -1.35141 2.26355
164 1 43.8392 -0.619578 3.0171
165 1 44.5095 -0.675412 3.79296
168 1 45.1809 0.806835 4.64875
179 1 43.2791 1.79349 5.46203
178 1 42.9371 2.26481 4.71253
177 1 43.4153 2.44088 3.91576
188 1 43.4207 2.8641 1.7873
185 1 43.494 4.0617 3.53263
42 1 -29.073 6.32051 0.952342
41 1 -28.6647 6.35108 1.80176
187 1 42.998 2.98527 2.58735
186 1 43.6892 3.63241 2.68414
16 1 -32.5791 12.1426 1.74852
15 1 -33.4783 11.9671 2.10171
18 1 -31.8164 12.6718 2.71365
19 1 -32.2107 13.461 3.14554
20 1 -32.1504 12.8173 3.81668
159 1 42.105 -1.33291 1.36891
160 1 42.5518 -0.431712 1.43465
161 1 42.968 -0.960366 2.06462
166 1 44.2335 -0.468454 4.63848
167 1 44.3978 0.445336 4.34627
157 1 41.633 0.377429 1.17559
158 1 41.4428 -0.634093 1.09156
170 1 45.7543 0.81262 3.19255
169 1 45.0839 1.20922 3.8311
175 1 44.5473 2.78189 3.8745
172 1 46.6344 1.3803 4.32028
180 1 42.8326 2.59888 5.65578
181 1 42.0614 3.16501 5.84125
183 1 42.2461 3.79622 4.35832
182 1 42.1416 3.91086 5.22727
176 1 43.9779 2.71235 4.60103
174 1 45.5115 2.62755 3.93303
184 1 42.9634 4.46918 4.2539
36 1 -31.607 8.37977 2.83698
40 1 -28.7522 7.01804 2.48835
35 1 -31.3727 9.29246 3.118
34 1 -31.5218 9.23616 4.04253
38 1 -30.243 7.33324 2.48902
39 1 -29.492 6.86282 3.06196
17 1 -31.91 12.833 1.73559
21 1 -31.8937 12.0848 4.29907
22 1 -31.0607 11.6712 3.97877
171 1 46.3437 0.535944 3.89822
173 1 46.3139 2.09028 3.80336
37 1 -31.1604 7.60696 2.67938
32 1 -30.3847 10.6384 4.65673
33 1 -30.6703 9.67148 4.33589
31 1 -30.5826 11.0348 5.49543
24 1 -29.3395 12.3861 4.09391
23 1 -30.0927 11.7587 3.8168
29 1 -31.6365 11.7415 5.93647
30 1 -31.5736 10.9243 5.33333
28 1 -30.8466 11.6435 6.41081
27 1 -30.7532 12.4311 5.80612
25 1 -29.5024 12.4774 5.02114
26 1 -29.8979 12.0557 5.80388
ITEM: TIMESTEP
9200000
ITEM: NUMBER OF ATOMS
100
ITEM: BOX BOUNDS ff ff ff
-5.0000000000000000e+01 5.0000000000000000e+01
-5.0000000000000000e+01 5.0000000000000000e+01
-5.0000000000000000e+01 5.0000000000000000e+01
ITEM: ATOMS id type x y z
171 1 40.2312 4.15826 1.55559
170 1 40.7239 4.94845 1.31488
168 1 42.3175 4.11928 1.32652
169 1 41.409 4.47067 1.70998
166 1 42.1759 3.92791 2.32114
177 1 39.626 2.66891 4.66207
178 1 39.9952 2.01857 5.2358
173 1 38.9938 3.47822 1.87396
172 1 39.3373 4.4166 1.79876
162 1 44.1054 2.73155 4.07099
161 1 43.4659 3.38569 4.29113
167 1 41.7037 3.45881 1.59262
165 1 43.0638 4.34015 2.44381
164 1 43.6261 3.65546 2.77966
183 1 41.0055 -0.947885 4.10428
179 1 40.7474 1.38827 5.42354
175 1 39.6887 2.5087 3.28984
174 1 39.5208 2.92016 2.49747
176 1 39.551 1.90237 4.09433
158 1 42.1633 2.92526 6.61964
163 1 43.4923 2.87368 3.33801
160 1 42.7189 3.06452 4.76156
159 1 42.3522 3.00555 5.65745
187 1 41.7624 -0.981144 5.86966
188 1 41.6373 -1.7049 6.51325
182 1 41.1216 -0.427247 4.9641
185 1 42.1772 -1.6616 4.64664
186 1 42.452 -1.55724 5.57286
181 1 41.3401 0.324888 4.38956
180 1 40.9197 0.481331 5.23724
184 1 41.2633 -1.82448 4.233
155 1 40.0195 3.95273 7.78148
157 1 41.8592 3.37206 7.40186
156 1 40.9227 3.6231 7.53962
189 1 41.1045 -1.32628 7.24363
190 1 40.7631 -0.549846 7.78412
198 1 38.3497 1.38486 9.5161
200 1 38.4164 3.0852 9.72556
153 1 38.6206 3.34692 8.30022
154 1 39.3322 3.9898 8.46616
4 1 -39.9143 16.9896 7.25037
5 1 -39.9915 17.6511 7.92281
16 1 -38.5934 15.2672 10.0871
18 1 -38.643 14.6028 8.53064
19 1 -38.3047 15.544 8.22301
20 1 -37.6245 15.986 8.69724
21 1 -37.0706 15.7079 7.94622
22 1 -36.2175 15.2527 7.59997
6 1 -40.6765 17.4268 8.54439
7 1 -41.1821 18.0191 9.1095
8 1 -40.8096 18.1045 9.97053
17 1 -38.5721 14.4615 9.5372
23 1 -36.7216 14.7327 8.27848
192 1 40.3633 -0.0853712 9.17942
191 1 40.1973 -0.776199 8.50124
193 1 39.7501 0.1794 8.54521
194 1 39.8059 0.735529 7.66581
196 1 39.7999 1.47682 8.61132
195 1 39.0667 1.38374 7.87107
197 1 39.2828 1.32331 9.42328
199 1 38.7298 2.24347 9.46104
151 1 37.6181 3.54083 9.75458
152 1 37.8135 3.33008 8.82809
1 1 -42.0118 15.7479 8.02227
3 1 -40.3612 16.186 7.48176
2 1 -41.07 16.1051 8.10206
25 1 -35.6338 14.9813 9.07867
26 1 -35.3357 15.9005 8.95507
32 1 -34.5849 14.8777 12.4467
33 1 -34.9909 14.1143 12.0917
31 1 -35.1268 15.4681 11.8422
15 1 -39.2784 15.8682 10.313
24 1 -36.1451 14.2049 8.85415
30 1 -34.9879 16.2966 11.451
10 1 -41.5623 16.934 11.0283
9 1 -40.9717 17.3149 10.4049
11 1 -41.4941 16.0239 10.8153
50 1 -42.4421 15.0512 8.47424
49 1 -42.9432 14.1898 8.47485
36 1 -35.0516 12.9341 12.8081
35 1 -34.4432 13.2669 12.1431
37 1 -35.9211 12.6947 12.4886
48 1 -42.4759 14.1486 9.30537
47 1 -41.9633 13.4974 9.81426
34 1 -34.1414 14.1177 11.7153
27 1 -34.7053 16.1833 9.65155
13 1 -40.1428 15.2303 9.97092
12 1 -40.9801 15.7826 9.97821
14 1 -39.8299 15.2887 10.886
28 1 -34.7623 17.1014 9.81735
29 1 -34.9985 16.9166 10.7516
39 1 -37.3328 13.0093 11.4985
44 1 -39.7803 13.6878 10.5302
43 1 -39.1777 13.9144 11.2499
41 1 -38.8151 12.5919 11.1359
42 1 -39.2693 13.1706 11.8292
38 1 -36.566 13.1753 12.0111
40 1 -38.016 12.2934 11.599
46 1 -41.2514 13.8726 10.2879
45 1 -40.5887 13.147 10.3975
ITEM: TIMESTEP
9300000
ITEM: NUMBER OF ATOMS
100
ITEM: BOX BOUNDS ff ff ff
-5.0000000000000000e+01 5.0000000000000000e+01
-5.0000000000000000e+01 5.0000000000000000e+01
-5.0000000000000000e+01 5.0000000000000000e+01
ITEM: ATOMS id type x y z
31 1 -38.8825 11.758 13.2256
30 1 -38.2552 11.0767 13.4344
16 1 -31.7017 12.0384 13.6911
17 1 -32.5824 12.3248 14.0001
15 1 -31.6354 12.4888 12.8392
11 1 -29.9407 12.3608 13.2194
33 1 -37.8661 13.2932 13.0107
32 1 -38.3761 12.5724 13.2746
10 1 -29.7369 13.3099 13.1564
14 1 -31.0123 13.0699 13.334
34 1 -37.8714 14.2103 13.1732
35 1 -38.1855 14.8537 12.5194
36 1 -37.2849 14.9629 12.8182
37 1 -36.5945 14.6646 13.4523
38 1 -35.7242 14.6359 13.8056
6 1 -31.8423 15.4598 13.195
7 1 -31.4178 14.7595 13.7222
9 1 -30.2467 14.1521 13.1577
8 1 -30.5184 14.4163 14.0139
5 1 -32.2841 16.1847 13.64
28 1 -37.5505 12.1598 14.5438
29 1 -38.3738 11.7814 14.0985
27 1 -36.5979 12.3228 14.4939
26 1 -36.751 11.7868 15.2709
25 1 -35.9003 12.309 15.2771
19 1 -32.4634 12.4241 15.4712
18 1 -32.5344 13.0003 14.656
13 1 -30.6242 13.3046 14.2058
12 1 -29.8398 12.7637 14.1097
39 1 -36.1921 14.9791 14.523
40 1 -36.1711 15.6209 15.2564
3 1 -33.1032 16.5267 15.0254
2 1 -32.3409 16.9986 14.625
4 1 -32.756 15.8812 14.4093
47 1 -34.8285 17.1876 15.5018
1 1 -33.0477 17.441 14.1474
50 1 -33.1436 18.3295 14.4464
48 1 -33.9615 17.5507 15.1044
49 1 -33.0917 17.8975 15.3492
24 1 -35.6597 11.9409 16.1318
23 1 -35.0269 12.1166 16.9262
22 1 -34.7424 12.8035 16.3115
21 1 -33.8751 13.1458 16.3892
20 1 -33.0508 13.0787 15.8747
42 1 -36.5835 15.4441 16.765
41 1 -35.8409 15.5473 16.1418
43 1 -36.3748 16.334 16.8493
44 1 -36.3534 17.2327 16.4285
45 1 -35.7359 17.3814 17.1171
46 1 -35.0818 17.2411 16.3739
171 1 41.4999 0.991873 18.5073
169 1 43.2441 1.39195 18.6161
170 1 42.3278 1.48403 18.3105
184 1 38.235 3.04328 17.927
183 1 38.8048 2.77159 18.5965
185 1 37.4046 3.26282 18.1172
186 1 37.5856 4.12667 18.584
172 1 41.4785 0.775973 19.4485
168 1 42.8631 0.768577 19.3238
167 1 43.1735 0.60587 20.1974
182 1 39.7135 2.88307 18.8967
173 1 41.9636 1.6282 19.6606
174 1 42.7679 2.16347 19.7465
187 1 37.8451 4.27574 19.485
181 1 40.1461 3.61828 19.4349
180 1 40.8635 4.0366 19.8734
156 1 39.0638 -0.275501 20.7143
157 1 39.9682 -0.0430827 20.3597
158 1 40.5596 -0.114622 21.06
155 1 38.8575 0.310848 21.466
159 1 40.7812 0.740694 20.6559
166 1 42.7263 0.0592545 20.7718
164 1 42.3295 0.660709 21.7312
165 1 43.2782 0.364859 21.5194
197 1 37.1333 2.64801 21.8015
198 1 38.0683 2.4832 21.5396
176 1 41.8827 2.97006 20.4007
177 1 41.3891 2.8986 21.2715
160 1 40.7245 1.76949 20.9268
161 1 41.544 1.89063 21.6122
175 1 42.6692 2.48687 20.6043
162 1 42.3472 2.33337 21.8359
192 1 35.8219 4.57702 21.0772
194 1 34.7225 4.00396 21.8385
190 1 37.2667 4.39528 21.3088
191 1 36.4356 4.60812 21.837
196 1 36.5124 3.36491 21.7135
188 1 37.9111 4.54338 20.3722
178 1 40.5608 3.29231 21.345
179 1 40.5511 4.0991 20.8199
193 1 34.84 4.69798 21.1587
189 1 37.6746 5.26543 20.9768
154 1 39.5352 0.454478 22.1007
153 1 40.1717 0.21812 22.7899
152 1 40.3553 1.183 22.5615
163 1 42.7548 1.46703 22.1181
199 1 38.8172 2.01165 21.9682
151 1 40.4864 2.06912 22.1317
200 1 39.6663 2.53826 21.9333
195 1 35.6432 3.64409 21.8855
ITEM: TIMESTEP
9400000
ITEM: NUMBER OF ATOMS
100
ITEM: BOX BOUNDS ff ff ff
-5.0000000000000000e+01 5.0000000000000000e+01
-5.0000000000000000e+01 5.0000000000000000e+01
-5.0000000000000000e+01 5.0000000000000000e+01
ITEM: ATOMS id type x y z
13 1 -36.9545 22.5176 8.39763
11 1 -37.164 21.839 9.77237
12 1 -37.5438 22.0724 8.99614
15 1 -35.6385 21.9385 9.11247
14 1 -35.9885 22.6379 8.5531
16 1 -35.387 20.9538 9.21941
6 1 -40.0791 21.3471 9.69477
5 1 -39.9414 20.4794 10.1204
9 1 -38.3933 22.6924 9.79931
7 1 -39.1578 21.2437 9.61599
8 1 -38.983 22.0325 10.2043
19 1 -35.4123 21.3595 10.3446
20 1 -35.6639 22.2679 10.3375
21 1 -35.3572 22.0038 11.188
22 1 -34.7662 21.2445 11.0797
23 1 -34.8898 21.4875 12.0041
25 1 -33.4855 21.5693 11.8575
3 1 -39.4669 19.2718 11.4001
10 1 -37.53 22.5954 10.2307
18 1 -36.3525 21.4793 10.2569
39 1 -32.8511 19.2083 11.5001
38 1 -32.8955 20.1793 11.6021
4 1 -40.0519 19.9167 10.9535
17 1 -36.3575 20.814 9.51024
35 1 -31.1541 20.4431 12.8167
37 1 -32.3369 20.7913 12.1029
36 1 -31.5124 20.3561 11.8949
24 1 -34.1216 20.9937 12.4298
28 1 -33.2908 23.6371 13.1545
26 1 -33.6979 22.5218 11.8967
27 1 -33.0286 22.9245 12.5522
47 1 -37.403 22.176 13.44
48 1 -37.3757 21.3097 12.9929
46 1 -36.5057 22.3009 13.0633
45 1 -36.1314 21.7146 13.7874
44 1 -35.2803 21.2917 14.0839
2 1 -38.7784 19.4391 10.7418
1 1 -38.9589 20.3388 10.9381
50 1 -38.4834 20.3164 11.7954
49 1 -37.8564 20.8153 12.343
43 1 -34.9375 20.7735 13.3108
42 1 -35.2687 20.4199 12.403
40 1 -33.7889 19.4025 11.7545
41 1 -34.6957 19.7113 12.0029
33 1 -30.8066 21.7062 13.5573
34 1 -31.054 21.4106 12.7159
32 1 -31.409 22.4917 13.7193
30 1 -31.9609 23.4177 13.4136
31 1 -32.3557 22.5029 13.6341
29 1 -32.7441 23.6068 13.9034
199 1 43.9845 -9.47299 16.4474
200 1 44.6871 -10.1737 16.4754
197 1 42.8023 -8.67266 15.972
198 1 43.5918 -9.1416 15.5996
154 1 46.1265 -8.72056 18.2465
152 1 45.2212 -9.56089 17.4518
151 1 44.3589 -9.9332 17.3585
153 1 46.1086 -9.59801 17.7542
196 1 42.038 -8.35708 15.4179
194 1 42.1483 -6.70819 15.1271
195 1 41.974 -7.45563 15.8219
193 1 42.4412 -5.75757 15.2842
155 1 46.4007 -7.77354 18.4966
156 1 47.2046 -7.34711 18.3761
191 1 40.967 -4.98873 15.9613
192 1 41.6035 -5.65459 15.7292
190 1 41.1629 -4.05338 15.7088
189 1 41.8154 -4.15889 16.4527
158 1 45.8235 -6.48322 19.0462
157 1 46.8244 -6.60077 18.8642
159 1 44.9649 -6.41339 19.4604
188 1 41.7772 -3.24701 16.1708
187 1 42.6977 -2.87123 16.3036
185 1 42.495 -1.92838 16.9279
186 1 43.3132 -2.18688 16.5694
160 1 45.3448 -5.95221 20.2905
162 1 44.3469 -4.75458 20.6827
161 1 45.1019 -5.31041 21.028
169 1 40.1405 -3.63824 20.0925
170 1 40.5984 -2.89372 20.4646
171 1 40.8984 -2.75261 21.3826
180 1 41.6671 -1.61937 19.1381
181 1 42.6048 -1.22774 18.8774
182 1 43.3581 -1.46343 18.3747
184 1 42.9592 -2.36538 17.6473
183 1 43.5175 -2.3973 18.4335
164 1 42.7078 -4.65524 20.6988
166 1 41.442 -5.22007 20.8595
165 1 42.2221 -5.22293 21.3348
163 1 43.5587 -5.02255 21.1425
168 1 40.7449 -4.29216 20.3649
167 1 41.6534 -4.44214 20.3004
173 1 41.9828 -3.90827 21.546
172 1 41.5364 -3.18908 22.025
174 1 42.0525 -3.55051 20.6346
177 1 42.9882 -1.46739 21.2825
178 1 42.8194 -1.05504 20.5023
179 1 42.0899 -1.04624 19.8204
175 1 42.6566 -2.87571 20.972
176 1 42.3898 -2.04818 20.8079
ITEM: TIMESTEP
9500000
ITEM: NUMBER OF ATOMS
100
ITEM: BOX BOUNDS ff ff ff
-5.0000000000000000e+01 5.0000000000000000e+01
-5.0000000000000000e+01 5.0000000000000000e+01
-5.0000000000000000e+01 5.0000000000000000e+01
ITEM: ATOMS id type x y z
14 1 -21.725 21.5047 7.37144
15 1 -22.5253 20.8577 7.32851
23 1 -22.0597 18.0441 6.9728
24 1 -21.61 17.2518 7.31089
25 1 -20.916 17.1912 7.93996
26 1 -20.0513 17.3994 8.3378
27 1 -20.0483 17.0527 9.25385
22 1 -21.6342 18.7364 6.3837
13 1 -20.9679 21.9721 6.83823
12 1 -20.9108 22.3012 7.70184
18 1 -22.7865 19.3399 5.58289
16 1 -23.0707 20.2733 6.79962
17 1 -23.4391 19.7717 6.09724
158 1 29.4076 -10.416 7.74762
157 1 29.673 -11.3247 7.74145
159 1 30.0604 -9.82066 7.94546
160 1 29.5172 -9.02256 8.02149
29 1 -20.7016 18.3807 8.4678
28 1 -20.8439 17.5802 9.06145
21 1 -21.4186 18.4763 5.44607
20 1 -22.2523 18.3136 5.08206
19 1 -23.1551 18.613 5.15832
10 1 -19.8824 21.8886 9.05607
11 1 -20.1583 22.4447 8.25091
8 1 -21.5829 22.5308 9.62173
155 1 29.635 -10.3419 8.94497
156 1 30.1609 -10.9333 8.46856
161 1 29.8377 -8.90074 8.9518
162 1 30.6932 -8.66087 9.33729
163 1 30.6007 -8.64882 10.277
164 1 30.9155 -8.3692 11.1854
31 1 -20.2821 18.9386 9.27675
33 1 -21.0289 19.9566 10.0497
34 1 -21.7671 19.4089 10.3085
32 1 -20.1321 19.5273 10.0249
30 1 -20.493 19.3038 8.40207
9 1 -20.6699 22.1581 9.55807
4 1 -20.3593 20.4086 11.3601
5 1 -21.2541 20.6096 11.5864
6 1 -20.8888 21.3036 11.0042
7 1 -21.2586 22.0736 10.4862
197 1 27.3992 -9.37903 14.0126
200 1 28.2985 -10.4792 12.1867
199 1 27.9833 -10.0171 12.9725
151 1 28.3725 -10.5065 11.2475
152 1 29.3931 -10.5582 11.0188
198 1 27.2123 -10.1696 13.5419
196 1 26.9306 -9.70555 14.7888
154 1 29.6093 -10.5629 9.93864
153 1 28.9445 -11.0442 10.3513
166 1 31.481 -7.16928 11.5605
167 1 31.3662 -6.23458 11.5344
182 1 29.9369 -4.65443 12.2598
184 1 30.2777 -5.99158 12.5089
183 1 30.6345 -5.15191 12.5298
165 1 31.8989 -8.03395 11.0664
168 1 31.6458 -6.56242 12.3701
38 1 -23.3661 19.0989 10.0321
36 1 -21.8803 17.8683 10.3554
37 1 -22.6812 18.5559 10.4261
39 1 -23.7635 19.8057 10.5683
35 1 -21.2953 18.5859 9.92723
50 1 -22.7982 20.1073 12.1352
2 1 -21.099 20.8928 12.7364
1 1 -21.9753 20.4433 12.6365
49 1 -23.2923 20.8232 11.6732
3 1 -20.4623 20.3851 12.2934
194 1 26.478 -8.35943 15.9014
195 1 26.8288 -9.16773 15.6043
193 1 26.6353 -7.4467 15.774
192 1 27.4561 -6.92417 15.4895
185 1 29.9541 -6.96686 12.3138
188 1 28.8392 -7.28734 14.0709
187 1 28.8616 -6.7083 13.2908
186 1 29.5717 -7.29191 13.1886
180 1 28.6662 -4.8447 13.0098
177 1 28.6607 -5.60537 14.1479
178 1 27.8116 -5.20061 14.1743
179 1 28.1773 -4.40737 13.667
174 1 30.8688 -5.40907 14.4899
176 1 29.4817 -5.13424 14.157
171 1 31.332 -7.54581 14.5521
173 1 31.0612 -6.29502 14.7476
169 1 31.2618 -6.81742 13.2185
170 1 31.4117 -7.69794 13.5836
181 1 28.9229 -4.72279 12.0759
175 1 30.1215 -5.81261 14.0517
172 1 31.7779 -6.77203 14.2726
40 1 -24.3329 18.9656 10.6278
42 1 -25.494 18.0042 11.8298
41 1 -25.0679 18.4287 11.0165
46 1 -23.6537 19.2134 12.727
47 1 -24.0877 19.4822 11.858
48 1 -24.0595 20.3711 11.471
191 1 28.128 -6.90915 16.122
190 1 28.2237 -6.26429 15.4246
189 1 28.7824 -6.9447 15.0248
44 1 -24.3461 18.0952 13.1212
43 1 -25.0009 18.4798 12.5027
45 1 -23.9366 18.805 13.5842
ITEM: TIMESTEP
9600000
ITEM: NUMBER OF ATOMS
100
ITEM: BOX BOUNDS ff ff ff
-5.0000000000000000e+01 5.0000000000000000e+01
-5.0000000000000000e+01 5.0000000000000000e+01
-5.0000000000000000e+01 5.0000000000000000e+01
ITEM: ATOMS id type x y z
162 1 34.2948 0.314015 6.61811
185 1 33.3321 -6.70353 10.1164
184 1 33.896 -6.63353 9.34235
161 1 34.1748 1.00667 7.3047
163 1 35.1787 -0.052559 6.91087
200 1 30.9024 0.38434 8.90609
160 1 33.3875 1.2918 6.7831
164 1 35.9446 0.252337 7.32014
165 1 36.8029 -0.0518717 7.64474
152 1 30.2962 1.62131 7.95019
151 1 30.7573 0.750748 8.00149
153 1 30.9044 1.74883 7.16285
154 1 31.3768 1.27286 6.50443
155 1 32.126 1.67635 6.23655
156 1 31.8561 2.27879 5.54394
157 1 32.8383 2.37751 5.54423
183 1 34.6088 -6.02147 9.21533
186 1 32.5318 -6.48687 9.60351
180 1 35.1399 -4.15739 10.4732
182 1 34.607 -5.42082 9.93714
181 1 34.832 -4.98552 10.818
190 1 32.3884 -4.33705 8.07361
191 1 32.7922 -3.7309 8.76271
192 1 33.6866 -3.75856 8.50361
189 1 32.3795 -5.19694 7.73509
188 1 31.9711 -5.88298 8.25455
187 1 32.5191 -5.7674 9.01237
193 1 33.8222 -3.3153 9.35598
194 1 33.8099 -2.51957 9.77874
198 1 31.9374 -0.734526 9.40618
196 1 32.4977 -1.66231 8.53816
197 1 31.6328 -1.60714 9.00724
195 1 33.2475 -2.1107 9.06666
159 1 33.9004 1.29523 5.9323
158 1 33.595 2.21973 6.08648
168 1 37.2942 0.960514 10.0299
169 1 36.9195 0.119201 10.3196
170 1 36.1631 -0.452928 10.5215
166 1 37.4447 0.0686606 8.33971
199 1 31.1973 -0.515487 8.75491
167 1 37.3698 0.330237 9.29696
179 1 35.9309 -4.26945 9.90516
175 1 34.7896 -2.6503 10.6093
174 1 34.6726 -1.6905 10.6637
173 1 35.0269 -0.9013 10.165
172 1 35.8549 -1.35439 9.94175
171 1 36.7458 -1.20237 10.2153
178 1 36.2272 -3.39019 9.56607
177 1 36.5888 -2.72726 10.1797
176 1 35.6255 -2.67784 10.1725
19 1 -26.4906 16.0951 13.5313
21 1 -26.0918 16.8906 14.1742
20 1 -25.5954 16.1744 13.6979
18 1 -26.5938 16.9499 13.0812
17 1 -27.1827 16.7156 12.3489
15 1 -25.9803 17.826 11.4332
43 1 -19.6001 20.8499 11.2886
42 1 -20.3975 20.3417 11.0803
41 1 -19.686 19.7716 11.2824
44 1 -20.0397 21.378 11.898
2 1 -22.2119 21.5965 13.4372
45 1 -20.7826 21.9776 11.5755
4 1 -22.6188 22.3471 14.3667
22 1 -26.5598 16.5367 14.9177
23 1 -27.4045 16.8018 15.222
33 1 -24.1004 18.0382 14.5145
16 1 -26.6926 17.5535 12.0286
36 1 -22.1008 18.5328 13.1043
35 1 -22.5672 17.9899 13.7006
37 1 -22.4314 19.0813 12.3167
38 1 -21.6094 19.5319 12.6377
14 1 -26.0411 18.6642 11.1006
40 1 -20.0276 19.4359 12.1299
39 1 -20.7313 19.2225 12.8334
13 1 -25.1716 18.9974 11.3921
12 1 -25.827 19.5294 11.8334
9 1 -25.8743 21.4738 13.6741
10 1 -26.1007 20.7674 13.0969
6 1 -23.829 21.7877 14.8748
50 1 -21.0922 21.5907 12.8237
1 1 -21.3181 21.5052 13.7855
49 1 -21.7848 22.0588 12.3786
48 1 -22.4429 22.1428 11.6196
46 1 -21.546 21.536 11.1322
5 1 -23.1674 21.6546 14.0944
3 1 -21.8722 22.4534 13.7713
32 1 -24.7631 18.3973 13.9427
24 1 -27.8552 15.8983 15.1747
25 1 -28.364 15.727 14.3752
27 1 -27.8964 17.4033 13.5391
26 1 -28.0636 16.5678 14.0518
31 1 -25.409 18.795 14.5206
34 1 -23.3874 17.6268 14.0969
11 1 -26.227 19.9996 12.6225
8 1 -25.0759 21.2807 14.1467
7 1 -24.6493 22.0862 14.4834
47 1 -22.4173 21.7668 10.723
28 1 -27.1147 17.0469 13.9579
29 1 -26.7838 17.9506 13.919
30 1 -26.1793 18.1671 14.5863
ITEM: TIMESTEP
9700000
ITEM: NUMBER OF ATOMS
100
ITEM: BOX BOUNDS ff ff ff
-5.0000000000000000e+01 5.0000000000000000e+01
-5.0000000000000000e+01 5.0000000000000000e+01
-5.0000000000000000e+01 5.0000000000000000e+01
ITEM: ATOMS id type x y z
26 1 -20.0552 25.9503 4.61438
27 1 -20.8593 26.2871 4.96933
30 1 -21.586 28.5969 5.56929
9 1 -23.8882 20.7123 7.01557
11 1 -22.8051 21.1702 6.6638
10 1 -23.3583 21.3747 7.45663
12 1 -22.778 21.5963 5.8225
13 1 -23.2145 22.0944 5.04027
14 1 -22.6934 22.0732 4.2209
24 1 -18.6722 25.6058 4.14521
25 1 -19.1908 26.3887 4.39632
28 1 -20.6891 27.2214 5.26666
29 1 -20.7842 28.2268 5.22932
33 1 -22.1931 27.7566 5.09191
32 1 -22.5153 28.215 5.86096
31 1 -22.3837 28.9704 5.26872
6 1 -26.0965 21.4748 6.38113
7 1 -25.3066 21.7411 6.81502
8 1 -24.4354 21.4325 7.26119
5 1 -26.4243 21.9395 7.17667
15 1 -22.068 21.6935 4.86066
16 1 -21.6741 22.5648 4.71818
17 1 -21.2621 22.6237 5.61777
20 1 -18.9293 23.0053 5.92768
36 1 -22.2248 26.3596 7.07422
37 1 -22.5423 25.491 7.49704
22 1 -18.5808 24.6601 5.06597
23 1 -19.1597 25.4099 4.97546
35 1 -22.5385 27.2544 6.85976
34 1 -22.0679 27.2694 5.93699
50 1 -24.1353 21.9614 10.1069
4 1 -25.8831 21.747 7.89826
3 1 -25.8115 20.8729 8.33295
48 1 -22.4943 22.2764 10.6193
46 1 -22.5056 22.8633 9.14363
44 1 -21.41 23.9376 8.77166
47 1 -22.0091 22.2583 9.73553
45 1 -22.0773 23.3676 8.44723
18 1 -20.7132 22.7605 6.43114
43 1 -21.2019 24.7761 9.273
42 1 -21.5497 25.4593 8.73921
19 1 -19.8265 23.0309 6.05635
40 1 -22.2846 26.1966 8.986
39 1 -22.9764 25.4923 8.75384
41 1 -21.8339 25.7888 9.6946
38 1 -22.7037 24.7652 8.07731
21 1 -18.7658 23.8292 5.36058
185 1 30.5451 -7.68412 11.876
184 1 30.3847 -7.99273 12.7964
1 1 -24.9088 21.4491 9.89107
2 1 -25.3315 21.0113 9.14834
49 1 -23.4206 22.0488 10.809
181 1 30.8429 -10.3419 13.0063
182 1 30.8747 -9.53203 13.6618
186 1 29.938 -7.19042 11.325
183 1 30.9639 -8.68062 13.1148
187 1 29.7972 -6.37854 11.7904
191 1 28.1057 -5.53114 13.1749
188 1 29.4102 -6.1015 10.942
189 1 28.7943 -6.04278 11.7459
190 1 28.2873 -5.43361 12.1903
178 1 29.7355 -10.1613 13.1413
179 1 29.538 -9.87709 12.241
180 1 30.4367 -9.74201 12.4756
196 1 29.1123 -3.40085 13.6431
192 1 28.0371 -4.64013 12.7706
193 1 28.9248 -4.60859 12.3956
197 1 28.2352 -3.82906 13.7121
198 1 27.5148 -3.50436 14.2717
194 1 29.8364 -4.86245 12.6571
200 1 26.9198 -3.69777 12.7493
199 1 27.2157 -4.16811 13.584
175 1 28.0375 -8.65284 13.8764
177 1 29.4215 -9.73603 13.9081
176 1 28.512 -9.50022 13.8885
173 1 27.8106 -8.56685 15.5553
174 1 28.0664 -8.15479 14.7218
195 1 29.2787 -4.36678 13.3393
155 1 25.4538 -4.52278 15.1927
154 1 25.089 -3.89272 14.6272
153 1 25.1011 -3.80604 13.6827
152 1 26.0055 -3.85297 13.371
151 1 26.357 -4.41553 12.6569
172 1 27.8183 -8.05489 16.4197
165 1 24.4551 -7.07698 17.153
170 1 26.5938 -8.06362 16.8127
171 1 27.3822 -8.16233 17.3382
158 1 24.197 -4.31464 15.3754
157 1 24.5502 -5.21346 15.4088
156 1 25.3363 -5.12502 15.9171
163 1 23.5302 -7.67458 16.3406
164 1 24.4104 -7.92578 16.6876
166 1 25.1683 -6.60256 16.7407
167 1 25.8489 -7.33221 16.5825
168 1 25.7434 -7.31005 15.5614
169 1 26.1799 -8.15262 15.9066
161 1 23.3751 -6.29247 15.4575
159 1 23.4683 -4.6688 15.9295
162 1 23.1077 -7.07886 15.8215
160 1 23.1849 -5.36019 15.2291
ITEM: TIMESTEP
9800000
ITEM: NUMBER OF ATOMS
100
ITEM: BOX BOUNDS ff ff ff
-5.0000000000000000e+01 5.0000000000000000e+01
-5.0000000000000000e+01 5.0000000000000000e+01
-5.0000000000000000e+01 5.0000000000000000e+01
ITEM: ATOMS id type x y z
175 1 19.2213 -5.2203 -0.849057
174 1 19.2102 -5.95576 -1.50148
171 1 20.1216 -5.49797 -0.0275666
173 1 20.1349 -6.1311 -1.18094
172 1 20.5903 -5.31702 -0.881399
177 1 18.6455 -3.90133 -1.11827
178 1 17.966 -3.28666 -1.16025
176 1 19.5424 -4.3363 -0.894375
179 1 17.3696 -2.55803 -1.09998
180 1 18.1841 -2.10439 -0.772019
181 1 18.6956 -1.3853 -1.18834
182 1 17.923 -0.857471 -0.804867
183 1 17.7061 0.14865 -0.732342
184 1 18.6633 0.0297973 -0.57176
186 1 18.4472 1.13777 -1.26892
185 1 18.7678 0.279765 -1.52425
189 1 20.1419 0.60467 -0.297163
187 1 19.3175 1.16562 -0.790762
166 1 18.5429 -6.88096 1.12947
165 1 17.5806 -6.72997 0.835069
167 1 18.4014 -6.19373 0.450067
164 1 17.5189 -5.73774 1.0279
168 1 19.1539 -5.78585 0.813085
169 1 20.0511 -5.59382 1.148
170 1 19.9942 -6.24087 0.451463
199 1 22.2226 -4.79536 0.855374
156 1 17.6263 -4.18979 1.42909
155 1 18.5755 -4.1014 1.31612
153 1 19.9286 -3.80938 1.27105
154 1 19.2576 -4.19049 0.551031
200 1 21.3593 -4.38257 0.823853
151 1 20.8536 -3.54486 0.898785
198 1 22.2472 -4.01289 1.39862
194 1 21.2051 -2.66214 1.41945
193 1 21.0495 -1.94215 0.782104
190 1 20.0296 -0.124452 0.273297
191 1 20.6588 -0.771125 0.671142
192 1 21.2198 -1.16335 1.3218
188 1 19.8933 1.44907 0.0231156
162 1 16.5155 -5.80423 2.46956
163 1 17.3234 -5.65279 1.94328
157 1 16.7831 -3.86988 1.72243
158 1 17.2712 -3.57742 2.47546
152 1 20.7309 -3.86289 1.81283
197 1 22.9495 -4.19797 2.0228
196 1 22.602 -3.40325 2.21332
195 1 22.0322 -2.70582 1.90825
161 1 16.4227 -5.34885 3.35742
160 1 16.6321 -4.43328 3.17493
159 1 16.8941 -3.51099 3.37868
11 1 -29.2734 12.1855 7.42033
10 1 -28.3365 12.4913 7.53322
9 1 -28.2182 13.461 7.31546
5 1 -29.9386 14.9524 7.53128
8 1 -28.4827 14.3706 7.52866
6 1 -29.2761 15.1366 6.84626
7 1 -28.2994 15.075 6.86589
13 1 -28.3923 12.1704 8.95157
12 1 -29.129 12.2735 8.33129
14 1 -27.9384 13.0101 9.22102
4 1 -30.1225 15.7375 7.95361
3 1 -30.2231 15.6649 8.91069
16 1 -27.1853 12.3686 10.5729
33 1 -32.1511 12.917 10.8303
15 1 -27.8218 13.0308 10.2186
2 1 -30.685 16.1554 9.64739
1 1 -30.2809 16.0431 10.4835
49 1 -30.7269 17.2047 10.7225
27 1 -30.6912 10.2202 12.0006
28 1 -31.1642 10.4339 11.217
30 1 -31.4098 11.4152 11.6401
31 1 -31.3846 12.1897 11
29 1 -30.7152 11.3342 11.066
24 1 -30.3378 11.6945 12.1752
21 1 -28.9192 12.3525 12.48
20 1 -29.178 11.6396 11.8691
19 1 -28.3426 11.3129 11.527
17 1 -27.1942 12.0417 11.5234
18 1 -27.5239 11.2142 11.0221
35 1 -32.2224 13.9371 12.2928
34 1 -32.4612 13.7537 11.3739
32 1 -31.1976 13.1015 11.258
36 1 -32.342 14.9024 12.381
38 1 -33.046 16.2166 11.9812
37 1 -32.1684 15.8298 12.336
39 1 -32.658 17.1309 11.8615
50 1 -30.3017 16.5432 11.2517
40 1 -33.331 17.6719 11.3048
41 1 -33.4372 17.9436 12.2089
47 1 -31.5536 17.9083 11.0879
46 1 -32.4461 18.1252 11.2698
48 1 -30.9306 17.4199 11.6376
43 1 -34.0977 19.3777 11.2831
42 1 -33.7151 18.8201 11.9721
44 1 -33.1401 19.5421 11.3972
45 1 -32.3249 19.0267 11.1105
26 1 -31.3473 10.5901 12.6478
23 1 -29.8924 11.6869 12.9874
25 1 -31.1038 11.5437 12.7402
22 1 -29.0585 12.1084 13.4339
ITEM: TIMESTEP
9900000
ITEM: NUMBER OF ATOMS
100
ITEM: BOX BOUNDS ff ff ff
-5.0000000000000000e+01 5.0000000000000000e+01
-5.0000000000000000e+01 5.0000000000000000e+01
-5.0000000000000000e+01 5.0000000000000000e+01
ITEM: ATOMS id type x y z
189 1 21.7664 0.485086 -4.72197
188 1 21.9727 0.0961794 -3.84104
186 1 23.0257 0.526152 -3.7951
187 1 22.7423 -0.214077 -4.29401
185 1 22.4536 0.537372 -2.98157
191 1 20.4532 -0.39353 -5.72443
192 1 20.0294 -0.110409 -4.88903
190 1 21.2044 0.101159 -5.38917
196 1 22.0769 2.38891 -5.17699
198 1 22.3263 3.42992 -3.69884
183 1 23.4662 0.0914967 -1.71073
184 1 22.6441 0.533823 -2.08719
182 1 23.9469 -0.696106 -2.13417
199 1 22.5129 4.24315 -3.45285
175 1 26.3324 2.27489 -2.52354
174 1 25.7733 1.7127 -3.05747
155 1 19.4402 3.76435 -3.11711
157 1 20.4131 4.97372 -2.47404
154 1 19.1039 4.06067 -3.95506
156 1 19.8 4.61854 -3.07241
195 1 21.1602 2.52509 -4.94492
194 1 20.8837 1.61981 -4.59055
193 1 20.4622 0.722277 -4.78169
181 1 24.5487 -0.929405 -2.89926
179 1 25.1831 0.122963 -1.74212
197 1 22.3324 2.82422 -4.4207
180 1 25.3109 -0.335488 -2.62818
178 1 24.9967 1.0691 -1.61813
177 1 25.7713 1.54071 -1.93707
200 1 21.5334 4.41897 -3.39994
173 1 25.2106 2.52576 -2.68569
171 1 24.6656 2.22642 -1.40957
176 1 25.9603 2.46832 -1.67703
152 1 20.5502 3.52696 -3.72694
151 1 20.8774 4.32531 -4.15688
153 1 19.8756 3.6917 -4.34263
172 1 24.5231 2.90942 -2.08914
158 1 20.4964 4.71278 -1.52077
159 1 21.4345 4.78936 -1.28122
162 1 20.2959 5.14441 0.505588
161 1 20.3522 5.59612 -0.45359
163 1 21.0237 4.98424 1.13006
169 1 23.8915 1.77226 -0.0131779
170 1 23.9443 1.75692 -1.0166
160 1 21.0811 5.60189 -0.99006
167 1 22.519 2.81523 0.460211
168 1 23.0191 1.99603 0.344608
164 1 21.0787 4.02638 1.04856
165 1 22.0854 4.23323 0.941605
166 1 22.2914 3.70131 0.189964
30 1 -32.0531 15.4207 13.1947
29 1 -32.052 14.9392 14.0128
40 1 -28.7908 17.733 11.5107
31 1 -31.141 15.1531 13.3003
39 1 -29.1497 18.7193 11.5231
28 1 -32.6514 14.1688 13.9032
33 1 -30.7333 14.3361 11.7351
32 1 -30.8454 14.5042 12.6982
36 1 -30.1562 16.3312 12.317
37 1 -30.0863 17.165 11.8474
38 1 -29.8439 18.0807 11.6879
41 1 -28.9112 16.8184 11.7654
42 1 -28.6287 15.8749 11.7143
43 1 -27.6602 16.0291 11.712
44 1 -27.0761 15.321 11.9758
48 1 -27.1455 14.6384 14.2914
45 1 -26.2893 15.0562 12.458
47 1 -26.4974 13.9648 13.9067
27 1 -33.1339 14.6295 14.5144
26 1 -33.3151 14.1347 15.3277
34 1 -30.8996 15.2959 11.6083
35 1 -30.0516 15.4295 11.9912
46 1 -26.6742 14.4909 13.0901
2 1 -27.2094 12.1937 14.8782
23 1 -34.8499 15.0483 16.1557
22 1 -34.1735 15.6991 16.1584
4 1 -27.5634 13.4562 16.1017
3 1 -27.4339 12.9944 15.3498
1 1 -27.1449 12.7256 14.0697
25 1 -34.1942 13.9259 15.7026
24 1 -34.398 14.8418 15.3703
50 1 -27.9781 13.1679 13.7205
49 1 -27.6898 14.0196 13.818
21 1 -34.0256 16.0823 15.2964
20 1 -33.6972 16.2104 14.4374
19 1 -33.107 16.5999 15.1288
6 1 -28.077 13.5081 17.0906
5 1 -28.4223 13.0581 16.3369
17 1 -32.5702 17.8111 16.488
18 1 -33.1268 17.3913 15.7952
13 1 -32.0901 15.6195 16.8628
12 1 -31.6951 14.8117 17.0427
10 1 -30.4348 14.8646 15.9117
9 1 -30.1333 14.0101 15.6841
8 1 -29.2248 14.1962 15.9827
7 1 -28.5478 14.187 16.7001
16 1 -32.5889 17.5246 17.4395
14 1 -32.9842 15.8253 17.0649
11 1 -30.9039 14.4061 16.6315
15 1 -32.6465 16.741 16.9323
ITEM: TIMESTEP
10000000
ITEM: NUMBER OF ATOMS
100
ITEM: BOX BOUNDS ff ff ff
-5.0000000000000000e+01 5.0000000000000000e+01
-5.0000000000000000e+01 5.0000000000000000e+01
-5.0000000000000000e+01 5.0000000000000000e+01
ITEM: ATOMS id type x y z
168 1 21.4544 2.81077 -14.9283
162 1 20.4264 3.33531 -13.0276
169 1 20.9004 2.28305 -14.3322
170 1 21.728 1.96063 -13.9988
163 1 21.0822 3.68827 -13.7252
164 1 21.4794 4.48859 -13.9916
165 1 20.7387 4.8519 -14.4636
166 1 20.4854 4.27166 -15.2134
167 1 21.2254 3.66129 -15.203
161 1 19.8437 3.41577 -13.7161
160 1 19.5853 2.5259 -13.8557
159 1 18.7275 2.85071 -13.4933
171 1 21.7443 1.11168 -13.4929
172 1 22.1699 1.42908 -12.714
173 1 23.065 1.0199 -12.5794
174 1 23.6335 0.225071 -12.6757
175 1 22.824 -0.279894 -12.4536
158 1 18.2892 2.15513 -12.9314
157 1 18.0114 1.70598 -12.0977
156 1 17.5312 0.808481 -11.8961
179 1 22.1133 0.31992 -10.9295
178 1 22.1962 0.390974 -11.8514
176 1 22.626 -0.642089 -11.5543
177 1 21.8447 -0.455243 -12.1008
155 1 17.585 0.453599 -11.0318
154 1 16.6975 0.143321 -11.0302
181 1 21.7366 1.3077 -9.547
180 1 22.2353 1.01869 -10.3297
153 1 16.3956 1.18435 -10.9473
152 1 17.2903 1.43953 -10.576
184 1 22.4425 2.62568 -7.99456
185 1 22.2157 3.06994 -7.16587
183 1 22.3308 2.92483 -8.89813
182 1 22.1443 1.97506 -9.01294
200 1 18.5722 1.08726 -11.2489
151 1 18.0913 1.84067 -10.8428
186 1 21.2939 3.41246 -7.23567
187 1 20.9255 3.49945 -8.11847
191 1 18.6552 4.41853 -7.96653
189 1 19.9366 4.88514 -7.91002
190 1 19.4992 4.05707 -8.2314
188 1 20.6368 4.33988 -7.83917
194 1 17.4011 3.89558 -9.10528
196 1 18.6397 2.46181 -9.01059
197 1 19.317 2.35854 -9.66757
195 1 18.1566 3.30889 -8.91953
193 1 18.0516 4.15472 -9.69786
192 1 18.7223 4.33775 -8.93588
199 1 19.0676 1.67835 -10.7018
198 1 19.3757 2.59372 -10.5894
45 1 -21.6684 14.9846 4.48888
46 1 -21.077 14.9402 5.23973
47 1 -21.6269 14.4157 5.81318
48 1 -22.1402 14.9602 6.42567
43 1 -21.2909 16.6369 3.95862
44 1 -21.1672 15.8202 4.45457
42 1 -20.5111 16.0622 3.64468
38 1 -22.2864 17.7472 3.98685
34 1 -20.5038 19.7295 5.63484
37 1 -21.7908 18.5733 4.05038
36 1 -20.9579 18.7575 4.52972
35 1 -21.323 19.4578 5.13496
1 1 -20.9573 13.8118 7.06964
2 1 -20.4442 13.5251 7.80153
50 1 -20.9753 14.7467 7.302
49 1 -21.5864 15.4359 7.01337
41 1 -20.8339 16.7103 2.97125
39 1 -22.3232 17.0056 3.41766
40 1 -21.5972 17.3725 2.95141
33 1 -19.4723 19.7539 5.57342
31 1 -20.1284 19.792 6.85739
32 1 -19.4767 19.2963 6.39179
3 1 -20.7672 12.6789 7.50823
5 1 -21.7053 11.1826 7.8057
4 1 -21.4701 12.0706 7.48706
15 1 -22.0587 15.493 8.39469
29 1 -19.3562 19.4986 8.23152
30 1 -20.1386 19.2231 7.70028
8 1 -21.789 11.3843 8.87538
10 1 -22.3711 12.6861 8.41264
9 1 -22.0859 12.2786 9.27801
7 1 -21.1699 10.774 8.5501
6 1 -20.8805 10.7656 7.59577
13 1 -21.9096 14.1293 7.65066
14 1 -22.5649 14.7591 8.10586
17 1 -21.5635 16.3745 9.19481
16 1 -21.1445 15.6832 8.66815
28 1 -19.1828 18.5508 8.31356
23 1 -18.7369 15.6896 9.76464
26 1 -20.1602 17.6291 8.39043
11 1 -21.7089 13.1556 7.94442
12 1 -22.3127 13.3467 7.2269
18 1 -20.5485 16.6159 9.16069
19 1 -20.6591 16.0047 9.84829
20 1 -20.4281 16.2494 10.6787
21 1 -19.9196 15.4889 10.384
22 1 -19.3094 14.9222 9.87443
24 1 -19.0789 16.1655 9.00458
27 1 -19.3364 17.7356 8.83268
25 1 -19.701 16.7702 8.42238
