LAMMPS data file via write_data, version 29 Sep 2021, timestep = 40000000

400 atoms
2 atom types
404 bonds
1 bond types

-3.12 3.12 xlo xhi
-3.12 3.12 ylo yhi
-15.6 15.6 zlo zhi

Masses

1 1
2 1

Atoms # angle

86 0 1 -1.2125706842012995 -1.5776011855629897 -13.792310040226464 0 0 0
85 0 1 -1.41482984306042 -1.9398427526828657 -14.757187155578428 0 0 0
84 0 1 -0.47859312661059084 -1.812711809108118 -14.742810436620674 0 0 0
127 0 1 1.6330382110852564 -1.9689409076288331 -12.779509994163138 0 0 0
126 0 1 1.0269089916822582 -2.284029564690334 -13.419624787345278 0 0 0
87 0 1 -2.1039535911768 -1.5347974485855844 -13.461592006512406 0 0 0
89 0 1 -1.782813170129881 -0.6450486289346763 -14.143166046651436 0 0 0
90 0 1 -1.4759080561579745 -0.8383254977719776 -15.033520823861386 0 0 0
117 0 1 -0.3552798680965304 1.479691658075586 -15.017087418875565 0 0 0
116 0 1 -0.8849568680383242 2.278954022248495 -15.05805175259798 0 0 0
125 0 1 1.1547848989264318 -1.89004859144538 -14.264131007844872 0 0 0
119 0 1 1.0909764235270611 1.4403253300604375 -14.415912438077754 0 0 0
118 0 1 0.1547714455600709 1.1859044005744905 -14.283992761177972 0 0 0
114 0 1 -1.1578822376158597 1.4360341699569208 -13.526038305773778 0 0 0
115 0 1 -1.3975406186548283 1.7383667105829712 -14.384013220736469 0 0 0
83 0 1 0.22764982708570639 -1.2997237165607665 -14.398290839101138 0 0 0
82 0 1 -0.030406154810377835 -0.41028162573095733 -14.754419532497433 0 0 0
129 0 1 2.0554039408530302 -0.7133061752754435 -11.596711804506011 0 0 0
128 0 1 1.6431556221746537 -1.5169569900029565 -11.999826381890646 0 0 0
123 0 1 1.0644240524259316 -0.7444300466445407 -14.751978655061617 0 0 0
88 0 1 -2.0207200296077605 -0.5999116710747097 -13.20943411704754 0 0 0
91 0 1 -0.9682642521944727 -0.06476670623167854 -14.993082735041778 0 0 0
80 0 1 -1.0671957671122323 -0.18928025256412137 -13.598810863763164 0 0 0
81 0 1 -0.1229082170230606 -0.051826980380004314 -13.865559481467946 0 0 0
79 0 1 -1.0657235759409447 0.4175103589385544 -12.813937126932164 0 0 0
124 0 1 1.8769133320726707 -1.1737157674798415 -14.484883078789714 0 0 0
120 0 1 1.7700762527185996 1.0470908446222496 -15.02955652922779 0 0 0
122 0 1 1.2266681909280632 -0.08609928642883351 -14.070007594236738 0 0 0
121 0 1 2.0198624466111514 0.4118389159642549 -14.38014796326498 0 0 0
92 0 1 -1.7291949644315048 0.39613795120239154 -14.655915846010455 0 0 0
112 0 1 -0.2965644633257105 2.271069009548605 -12.592590873760555 0 0 0
113 0 1 -1.2183881626767556 2.191126465134814 -12.882324093239019 0 0 0
78 0 1 -0.8717781789054454 0.6674702964329392 -11.861651960327913 0 0 0
110 0 1 0.660429615379392 1.9724686588777114 -13.587191268720936 0 0 0
111 0 1 0.15354706396566864 1.4679728894773258 -12.876321140358023 0 0 0
131 0 1 0.6723191926531179 -1.7370389090903282 -11.062305419098768 0 0 0
130 0 1 1.329880073373789 -0.9798746488591069 -11.058778541655462 0 0 0
133 0 1 -0.8502073339756065 -1.509342666284132 -10.783227737322383 0 0 0
107 0 1 2.410832519406194 -0.01309036939650457 -13.286431019668608 0 0 0
106 0 1 2.449511296659271 0.3166937361855476 -12.39478699474558 0 0 0
100 0 1 -0.9298959857293218 -1.9685426657579854 -12.483202857080352 0 0 0
102 0 1 -0.4251852702448496 -1.1277405234359101 -13.359757759340804 0 0 0
101 0 1 -1.0817784616923134 -1.0302427746371903 -12.62542328550793 0 0 0
94 0 1 -2.032142557530505 0.914130389149557 -13.001682347093098 0 0 0
104 0 1 0.7262392613364723 -0.43259652741184024 -12.107515088591125 0 0 0
103 0 1 0.11479507881850584 -0.5019897290279091 -12.845652379708575 0 0 0
105 0 1 1.633307571488772 -0.1800142632898213 -12.469352972889332 0 0 0
77 0 1 -0.43963690658095034 0.5697788812113318 -10.987747808917176 0 0 0
29 0 1 -0.19605089033275863 1.0498506832709238 -8.901815845878174 0 0 0
109 0 1 1.1728369693625023 1.1591695731122007 -13.476008057538781 0 0 0
108 0 1 1.996575741401402 0.8955203401920023 -13.125806574698807 0 0 0
93 0 1 -2.2750006457819016 0.5759414881791513 -13.885147456660018 0 0 0
95 0 1 -2.170177224282617 1.1852378552920562 -12.04915808014216 0 0 0
76 0 1 0.11244667285709603 1.21764908218137 -11.451758103430556 0 0 0
75 0 1 0.8922676873274344 0.7325762037239094 -11.50040713086514 0 0 0
74 0 1 1.0956593496578855 1.736851701972216 -11.428489897041272 0 0 0
73 0 1 1.6871509586815299 1.172176481990638 -10.888929531960244 0 0 0
134 0 1 -1.2611422128414156 -0.6466170759375066 -10.912090021832427 0 0 0
135 0 1 -1.8839316118253573 -1.0468190246134623 -10.295708127841143 0 0 0
136 0 1 -1.9767538199223211 -1.3682340920844536 -9.426867256087503 0 0 0
132 0 1 -0.14046178139245422 -1.5732576464311698 -11.467077328811806 0 0 0
26 0 1 2.4135956362238846 0.48062533620942144 -8.862102528865385 0 0 0
25 0 1 2.061599852916214 0.8140270437619223 -9.66150026894256 0 0 0
99 0 1 -1.5969098938431379 -1.805733098388182 -11.783041424722041 0 0 0
98 0 1 -2.1605225850426866 -1.056750526438355 -11.543063214671493 0 0 0
137 0 1 -1.2938549710582925 -0.6344538698217543 -9.397389872364508 0 0 0
30 0 1 -0.658413928264827 0.3168218761484709 -9.26651320863251 0 0 0
31 0 1 0.1353396679369854 -0.17926671189822288 -9.356385993349678 0 0 0
70 0 1 0.49344115308787634 2.16002963176292 -10.297596256246813 0 0 0
27 0 1 1.544470153080998 0.8145092251637569 -8.651802010808064 0 0 0
28 0 1 0.6551379176206872 0.7042745646711625 -8.828422590759168 0 0 0
24 0 1 1.5851040009016877 0.29542790204445385 -10.297179954756102 0 0 0
97 0 1 -2.275196656634547 -0.04078109123740906 -11.650270234764484 0 0 0
96 0 1 -2.1826714979025597 0.7773445960829882 -11.148561414821122 0 0 0
72 0 1 0.9015091419749729 1.200094884853246 -10.269760776870628 0 0 0
68 0 1 -0.5017225103966858 1.3942538739998613 -10.171862476682756 0 0 0
71 0 1 1.4349826245802992 2.0120002735149756 -10.478136526714767 0 0 0
17 0 1 -0.8197845600976581 -2.06748751087362 -8.840292346893927 0 0 0
18 0 1 -0.865342539756801 -1.6146722970523877 -9.744999402904707 0 0 0
19 0 1 -0.22266147932291608 -1.026794086740825 -10.079254188878355 0 0 0
20 0 1 0.6101461337765106 -1.546540794138735 -9.92139122072596 0 0 0
21 0 1 1.370033305477565 -1.8272230851991775 -9.390803232643131 0 0 0
22 0 1 1.6354374384335122 -0.9616516706769328 -8.998781107713576 0 0 0
138 0 1 -1.9858249767463707 -0.13195097865853714 -9.009897949343507 0 0 0
140 0 1 -1.9612742629226991 -0.3138789356663932 -7.637553230867228 0 0 0
139 0 1 -1.7736127753932605 0.3684111971912056 -8.276241734083115 0 0 0
141 0 1 -2.450416503688293 0.20457712201065192 -6.995555174808359 0 0 0
32 0 1 0.2103575891407712 -0.5396864221166905 -8.505886519217386 0 0 0
33 0 1 0.7308513181063528 -1.2948841450793953 -8.11505921887401 0 0 0
35 0 1 1.980484702154541 -1.1522779784820563 -7.844530115923891 0 0 0
34 0 1 1.2398566343795236 -0.512582558658392 -8.041917567307891 0 0 0
36 0 1 1.2785605977405725 -1.1639282594488678 -7.1514100380578265 0 0 0
23 0 1 1.6144124088436465 -0.598108025175416 -9.843324713662126 0 0 0
37 0 1 1.8190299285807088 -0.9068112679836768 -6.407073669109948 0 0 0
67 0 1 -0.7137313021458792 2.2880355336487077 -9.993049486913094 0 0 0
66 0 1 -1.3517483064815767 2.2444227275251145 -9.237359213059014 0 0 0
65 0 1 -1.417586415369326 1.538987474359021 -8.602392179287175 0 0 0
69 0 1 0.030680637960568802 1.8805070752669213 -9.511998392687591 0 0 0
63 0 1 -1.032282780920895 1.8642778687869461 -6.998636131905857 0 0 0
64 0 1 -1.0580774085535367 1.2480475054042526 -7.714789220851491 0 0 0
16 0 1 -0.5306735756726696 -2.108410360610293 -7.941666588636461 0 0 0
15 0 1 -0.6832008117838234 -2.499389991358678 -7.11935810788623 0 0 0
12 0 1 -0.4196155157801453 -2.3919747432503002 -5.829690027375838 0 0 0
14 0 1 -1.4129467919055114 -1.9488430003058017 -7.129438475702934 0 0 0
13 0 1 -0.7804425424687201 -1.7973774278805312 -6.47101351533456 0 0 0
143 0 1 -1.2782115843910733 0.37940334839789747 -6.58814426811733 0 0 0
142 0 1 -1.9231905492861443 1.036195841358168 -6.954746557307447 0 0 0
144 0 1 -1.756646724187141 -0.43343243051276403 -6.1772435079498 0 0 0
11 0 1 0.23881915195360093 -2.4222045538640042 -6.511279674902683 0 0 0
10 0 1 0.36965586004879586 -1.5618177485834999 -6.161970058720153 0 0 0
39 0 1 2.340387252617266 -0.27201865768351896 -7.31192852523159 0 0 0
46 0 1 2.3065400474314406 -0.5707303190214833 -5.223101214266409 0 0 0
42 0 1 2.1549267604263567 1.0477062109320163 -6.668049790125842 0 0 0
45 0 1 2.60134706837554 -0.1964835687002836 -6.078351779089488 0 0 0
44 0 1 1.7256313242623944 0.17092547217198975 -5.852095175158595 0 0 0
43 0 1 2.149803175320877 1.1361271052965896 -5.769979860075233 0 0 0
40 0 1 2.523511064586607 0.5310313282919947 -7.834314424938087 0 0 0
38 0 1 1.4376606100199216 -0.20349530474483005 -7.018820797248888 0 0 0
62 0 1 -0.4218916095972082 1.1277711188137054 -6.589221332636105 0 0 0
61 0 1 0.13371299039048068 1.835470383965507 -6.946034490340577 0 0 0
145 0 1 -1.7298592734359568 -0.17935183784047642 -5.255384960863145 0 0 0
146 0 1 -0.8306105303593677 -0.19635535701945947 -5.641397802581225 0 0 0
147 0 1 -0.6404460433198341 -0.4973229824100085 -4.761404975953225 0 0 0
148 0 1 -0.9043225819370553 -1.422899383038861 -5.0160590621888215 0 0 0
49 0 1 0.7133290929875293 -1.7911018440222168 -4.250416934237301 0 0 0
51 0 1 1.351762673406132 -0.8228649931548033 -4.212471795132105 0 0 0
52 0 1 2.2411588416708588 -0.9093891148380848 -4.034996779940999 0 0 0
158 0 1 -2.47912882342643 0.851661768718084 -4.736294861625066 0 0 0
8 0 1 0.0730689983613205 0.2881111054607161 -6.124799259989034 0 0 0
9 0 1 0.16310617804359762 -0.6340362166080843 -6.075322177977334 0 0 0
7 0 1 0.6897291696446763 -0.07968481029683815 -5.45243038404771 0 0 0
48 0 1 1.00041690694243 -1.524817623162827 -5.177128302877548 0 0 0
47 0 1 1.9298166079461643 -1.4443282696755004 -5.008307681900216 0 0 0
41 0 1 1.694662821404916 0.9631887333746268 -7.580964650647566 0 0 0
59 0 1 0.9341592873675535 2.1903196645670473 -5.5949699870526235 0 0 0
58 0 1 1.270620046741432 1.4221084756777647 -5.112499064384868 0 0 0
160 0 1 -1.3313727045538144 1.3069525066204624 -4.482402677350122 0 0 0
159 0 1 -1.784422269802903 1.1035399575625842 -5.318690198133027 0 0 0
161 0 1 -0.9979162145181834 1.6035751377025986 -3.603464632221782 0 0 0
162 0 1 -0.31254799154211915 1.6372174751197959 -4.385032877377974 0 0 0
163 0 1 0.5915190480769269 1.3311522985136701 -4.163635340347424 0 0 0
164 0 1 0.0694716518789158 1.2673541727680877 -3.3646645159123896 0 0 0
60 0 1 0.10388553187690903 1.7483660161015004 -5.941175402099046 0 0 0
149 0 1 -1.8873365150655619 -1.3731256564527727 -5.146097731078107 0 0 0
150 0 1 -1.6401551396933673 -1.123161646935891 -4.266430054016841 0 0 0
2 0 1 -0.04611345749053955 -0.16261885191418 -3.0684204621592346 0 0 0
50 0 1 0.40279147655090375 -0.8987435367001037 -4.307928213459801 0 0 0
1 0 1 -0.2711355276953043 -0.9269972505676068 -3.6212468778128843 0 0 0
3 0 1 0.5747065380706753 -0.8249113012442688 -2.6629949914168343 0 0 0
53 0 1 2.299528021905896 -0.009812030969669028 -3.7126663797036628 0 0 0
54 0 1 1.6441488006507896 0.6507776206910987 -3.839327658966525 0 0 0
157 0 1 -2.0086476304998437 0.7010803074034858 -3.8529400332671857 0 0 0
6 0 1 0.22724306747249154 0.2527768441350623 -4.67603828871607 0 0 0
5 0 1 0.7060087097903204 0.08357756040288222 -3.8214342514565693 0 0 0
4 0 1 1.126773139384192 -0.1160407039324711 -3.028113671154559 0 0 0
56 0 1 1.6142009058693332 1.7835148640032736 -3.4935510910659264 0 0 0
55 0 1 2.108997414109298 1.0442009279216637 -3.052928256622853 0 0 0
57 0 1 1.9123918706485545 1.7333557528468735 -4.476699512363156 0 0 0
156 0 1 -1.6366746836566364 0.47830055363900204 -2.9199980838747224 0 0 0
165 0 1 -0.5883050608550934 0.7453835593348662 -2.841825801382899 0 0 0
168 0 1 -0.6834200111240175 2.1209779233157584 -1.506683790792383 0 0 0
166 0 1 0.251622898993163 0.9223408114704664 -2.409178757144627 0 0 0
167 0 1 -0.17762311980314854 1.3232350836198592 -1.630197500163699 0 0 0
199 0 1 -1.0092089658118912 -0.5844526976016079 -2.333801745472603 0 0 0
200 0 1 -1.215832281433491 -0.8701065486427294 -3.3144386360756246 0 0 0
189 0 1 0.6293931452078468 -2.218786752227013 -2.7312309528216647 0 0 0
374 0 2 1.3084669615943392 2.1303303821024486 -0.6462868876531557 0 0 0
151 0 1 -1.9376563768411201 -1.4301432204112243 -3.4546334524352282 0 0 0
198 0 1 -1.189194824154473 -0.45694455812517487 -1.4223961521342918 0 0 0
197 0 1 -0.31240060959455684 -0.8260352528032141 -1.3962237851671027 0 0 0
152 0 1 -1.8718500049479974 -1.3742895915854854 -2.4324275536866122 0 0 0
153 0 1 -2.241558508176602 -0.529287811747835 -2.1268664726919564 0 0 0
184 0 1 0.3911843301559298 1.3376462327516836 -0.7357446992347536 0 0 0
375 0 2 1.6221017216217644 1.835786849382695 0.22917133176696297 0 0 0
376 0 2 1.2136251364278468 2.0844665070462023 1.1113231093842828 0 0 0
377 0 2 1.8757643536635011 1.7372817225988761 1.6804912506072132 0 0 0
378 0 2 1.9035075181618064 1.1196691960291836 0.9512364642011071 0 0 0
155 0 1 -1.5880447141152054 0.6786064738421701 -1.9907616955620069 0 0 0
172 0 1 -2.3584255233386937 0.8473893622175377 -0.46150000772351263 0 0 0
171 0 1 -1.9418432741962999 1.6670136689457964 -0.7457524674337321 0 0 0
154 0 1 -2.4713206704224335 0.3627445322042611 -2.1812079493193823 0 0 0
182 0 1 0.2298907042383471 2.1311769266198466 -0.008087481971539535 0 0 0
169 0 1 -1.4262556692706243 1.6835091275843095 -1.9073151550738068 0 0 0
173 0 1 -2.0452571697289588 1.3662074348727804 0.26482529097743274 0 0 0
170 0 1 -1.236835879624552 1.1751784337078661 -1.1275366518952914 0 0 0
183 0 1 -0.4961017780982304 1.5803465550173283 -0.3961790132393171 0 0 0
192 0 1 1.568449521412055 -1.86000502875861 -0.524115405493317 0 0 0
193 0 1 1.1697771894055407 -1.730359717485801 0.357431441428427 0 0 0
190 0 1 0.28109271114737255 -2.3042144298417395 -1.8088411108859892 0 0 0
188 0 1 1.1256228330377558 -1.6621418312452643 -2.2001894167722376 0 0 0
191 0 1 0.7805404872300428 -2.1281418002596353 -0.9718426860038566 0 0 0
370 0 2 1.5474948330336018 -0.3580818362829252 -1.9388642349736838 0 0 0
371 0 2 2.1824034761249567 0.16399352858590624 -2.4755338225286767 0 0 0
369 0 2 1.8433044998562373 -1.0041674324857144 -1.2855667973351623 0 0 0
373 0 2 1.7129969381408654 1.3447638747750437 -1.0056936092574147 0 0 0
372 0 2 1.844940338448682 1.000372595765807 -1.9985900606448321 0 0 0
196 0 1 -0.13711294550089187 -0.6402072541603205 -0.45396046821795066 0 0 0
175 0 1 -0.7348057069730575 0.2837502637049422 -0.2603612966659685 0 0 0
194 0 1 0.2069956654780462 -2.1280522983013075 0.389723080135888 0 0 0
187 0 1 0.7161457889953459 -1.0285439592577692 -1.6441542309320027 0 0 0
186 0 1 0.49232096588668195 -0.06385908622140996 -1.782157630587293 0 0 0
185 0 1 0.2795372467155357 0.4760430379205561 -1.00421804543826 0 0 0
174 0 1 -1.5537928419005052 0.5372890181128103 0.1449584767431528 0 0 0
379 0 2 1.9102634792248268 0.18463442682189082 1.2904807316242461 0 0 0
380 0 2 1.6493351236265277 0.3495688845847199 2.1706334056561656 0 0 0
381 0 2 1.001435159931824 -0.3871648122112726 2.1639553881571456 0 0 0
179 0 1 -0.5213609643870631 1.963335038978776 1.5096118851007707 0 0 0
176 0 1 -0.14082971990831675 0.6802123139185606 0.3876746854720962 0 0 0
178 0 1 0.39064792548898114 1.6289582765855324 1.3555939460744773 0 0 0
180 0 1 -1.1766835251827121 1.9748332520596863 0.8312313443201449 0 0 0
181 0 1 -0.6221696808212687 2.4215340890591586 0.22360118707019505 0 0 0
367 0 2 1.750104814371666 0.20797900560738292 0.05067097335950574 0 0 0
368 0 2 1.53872709714666 -0.26777409654085305 -0.746229187597593 0 0 0
365 0 2 1.430087857800743 -0.6359225207412958 0.6238519093179946 0 0 0
361 0 2 0.019804985007739077 -2.0043578472279564 1.5885057230778483 0 0 0
366 0 2 0.8456560890562694 -0.029478292928534575 0.0823198916539515 0 0 0
364 0 2 1.908246584719914 -0.8188829695170692 1.4286698969042442 0 0 0
362 0 2 0.9258977036401964 -2.4271358302167614 1.5196309387303382 0 0 0
195 0 1 -0.3840644098188007 -1.332909537566219 0.23845757036626297 0 0 0
382 0 2 0.15902468755847785 -0.5812082475539535 1.6460554102052647 0 0 0
383 0 2 -0.5736007255092709 0.046476581361979706 1.7477705370776293 0 0 0
363 0 2 1.3289950859865935 -1.5494768351024009 1.6936626016034233 0 0 0
395 0 2 2.5255668851330286 0.41801535272856327 2.890777084896148 0 0 0
388 0 2 0.533155631263154 1.8964311479091975 3.0318218631877714 0 0 0
387 0 2 -0.07454772895939274 1.9115189552924254 3.7692261130856974 0 0 0
386 0 2 -0.7286284426669525 2.007157490444299 3.0985367776146044 0 0 0
177 0 1 0.7468428980027109 0.9957479016790541 0.6983984403529331 0 0 0
384 0 2 -1.1167139152702965 0.7530622208550072 2.014374550600896 0 0 0
385 0 2 -1.2929982175901982 1.5587312057734153 2.4750830472274763 0 0 0
205 0 2 -1.121312856110996 -1.4798031141741135 1.8807343441421307 0 0 0
360 0 2 0.30210654986287694 -1.403913431349303 2.2771006910291844 0 0 0
359 0 2 0.69213679426856 -1.1890519897027356 3.082208926648194 0 0 0
204 0 2 -1.3972746624623011 -2.0679807684750036 2.588437052894205 0 0 0
209 0 2 -2.213130850167575 0.44483557736772156 2.3440274833785586 0 0 0
208 0 2 -2.569750485597622 0.35552151537351495 1.4879502407351535 0 0 0
358 0 2 0.06849241533702684 -0.5774762300286994 3.511132588086608 0 0 0
357 0 2 -0.40671000132993845 -0.9946102728616331 4.2221087377131985 0 0 0
394 0 2 2.1452778360357554 1.2623452990916633 3.1261329238974316 0 0 0
396 0 2 1.9577253910386418 -0.3647051051477824 3.189268062697373 0 0 0
356 0 2 -0.5532727796310445 -0.6768061629370639 5.171652484095761 0 0 0
397 0 2 2.073972500679975 -1.3140064916116145 3.13256665742417 0 0 0
211 0 2 -1.4153341734468128 1.1763739174106131 3.5374622204067254 0 0 0
212 0 2 -1.557562992787801 1.296408486952353 4.539982947387467 0 0 0
389 0 2 0.26675399599159677 1.022780107127196 2.6840740120337325 0 0 0
390 0 2 1.1064649879737196 0.8436248631449981 3.0112067656541694 0 0 0
392 0 2 0.8236705522638568 1.3919976576352213 4.523337177842909 0 0 0
393 0 2 1.5352361180608252 1.2672453726709718 3.9071152493625654 0 0 0
206 0 2 -1.576334940841199 -0.6379518494062316 1.7658159958684636 0 0 0
203 0 2 -0.5156051582962212 -2.3967885709460726 2.6640781390844572 0 0 0
202 0 2 -0.413681185881681 -2.420535439853296 3.6358599581556956 0 0 0
201 0 2 0.26630323377959453 -1.9118169481211087 3.9834816888275224 0 0 0
210 0 2 -2.2538359950009 1.1858033456303867 3.013963262207932 0 0 0
207 0 2 -2.2141840866974616 -0.47402298395218695 1.118713434682061 0 0 0
217 0 2 -2.059474578728375 -0.19029823025464582 5.487114727091173 0 0 0
398 0 2 2.253901322641735 -0.9390704601396915 4.072844981728806 0 0 0
355 0 2 -0.10265630993214267 0.10208280929188886 5.521252039725758 0 0 0
399 0 2 2.044270908956715 -1.661761123458007 4.711133171967011 0 0 0
353 0 2 0.9430801301957935 -0.20667323120711295 5.369828071160799 0 0 0
216 0 2 -1.9456756871298237 0.48302390025278924 4.845347544416414 0 0 0
391 0 2 0.5652113817454166 0.7074592745621462 3.865989949356974 0 0 0
213 0 2 -0.7712240428913966 0.7323024892994455 4.247274981432728 0 0 0
214 0 2 -0.6987738190736021 -0.014621130233677466 3.7577567669744325 0 0 0
354 0 2 0.30668501775562185 -0.2642817367920737 4.669706098866564 0 0 0
252 0 2 -1.7832929633378014 -1.8105951156600044 4.284681761923735 0 0 0
243 0 2 -1.8257734813990836 -1.509577376972452 6.516025228390546 0 0 0
251 0 2 -1.080272528579417 -2.1799945969142858 4.792123585065441 0 0 0
250 0 2 -0.09314302997316937 -1.9787640464426806 4.918701125732284 0 0 0
249 0 2 -0.09282686964576689 -1.9777182551002634 5.87351423272265 0 0 0
246 0 2 0.11445551019586492 -2.5053406074910747 8.046640266201564 0 0 0
349 0 2 1.2353001394782483 -1.2622096002440744 6.366947780252761 0 0 0
219 0 2 -1.7373752604074322 0.4447118416822693 6.2608797191023235 0 0 0
218 0 2 -1.1500830295815463 0.07015288346958272 5.607439334043227 0 0 0
240 0 2 -2.458413046189242 0.6668869047370213 7.37962121436553 0 0 0
244 0 2 -1.1265083321992027 -2.232006393131832 6.84824471164763 0 0 0
241 0 2 -2.535513839681356 -0.2277174978548291 7.2391065050489605 0 0 0
242 0 2 -1.9856626430536686 -0.5068696399996186 6.512352322608254 0 0 0
253 0 2 -2.125948592215385 -1.181614196086695 5.0729321762997825 0 0 0
255 0 2 -0.7599029916278909 -1.337711471444276 6.36053222946778 0 0 0
254 0 2 -1.2510841579982477 -1.434654658513941 5.562678506989448 0 0 0
400 0 2 1.0387888721170644 -1.894794296201006 4.519329428730366 0 0 0
352 0 2 1.7349134582013246 -0.6522756951281257 5.615486954919289 0 0 0
351 0 2 1.1582013665831317 -1.3937669547549028 5.383607876456765 0 0 0
350 0 2 0.9259323925779782 -2.1300214385428915 5.931608827347003 0 0 0
215 0 2 -1.6018069542227855 0.15282057963900963 4.024110566118905 0 0 0
231 0 2 1.4121932999446376 1.7293527754919182 5.33292154815676 0 0 0
230 0 2 2.1818350669107156 1.2364741169883346 5.119074967093289 0 0 0
229 0 2 2.397075567994101 0.8409309504030745 5.911002465883368 0 0 0
227 0 2 1.4705139420673448 0.29711527215668015 6.131921152256649 0 0 0
228 0 2 2.338042124874574 -0.0005533093408692097 6.400887996533599 0 0 0
247 0 2 0.587710484548077 -1.875882557308267 7.527312448838456 0 0 0
248 0 2 0.08591458476712249 -2.14837691241768 6.812450307201777 0 0 0
279 0 2 -0.7389907517300982 -1.312362534440745 9.944194516734084 0 0 0
348 0 2 1.6009251019959254 -2.014739436318488 6.903068032323053 0 0 0
347 0 2 2.2100025949037527 -1.2918238695009263 6.64587286498363 0 0 0
239 0 2 -1.760500192993719 0.5178558598426223 8.166729348922345 0 0 0
236 0 2 -0.743656261879521 2.193604788630683 8.350687287738205 0 0 0
237 0 2 -1.1521640124395491 1.7021962075609678 9.044840185435186 0 0 0
238 0 2 -1.5676063750282807 1.4212750182856437 8.200489551908944 0 0 0
221 0 2 -0.9391414612919203 0.724737927114233 6.947471203030842 0 0 0
220 0 2 -1.697133614039591 1.2525250093713394 6.794991599109129 0 0 0
245 0 2 -0.6570450313461348 -1.9772995317228361 7.658379128375589 0 0 0
256 0 2 0.15647495800829825 -0.9995677152196432 6.628207965328947 0 0 0
281 0 2 -0.4639846453231494 -1.2912781149266275 8.75550647162216 0 0 0
258 0 2 0.6767890540486474 0.24339479436507097 7.554024116442894 0 0 0
257 0 2 0.34642808611800713 -0.6517508560361436 7.522351511787867 0 0 0
259 0 2 1.3373623636140608 0.9040757800695325 7.89021191415971 0 0 0
346 0 2 1.631993002806939 -0.8186626998627962 7.3154148834195025 0 0 0
233 0 2 0.16465744002321805 2.504196106167538 5.9731557225465295 0 0 0
232 0 2 0.9474361851881862 2.1054040704168586 6.066976165932869 0 0 0
223 0 2 0.19770469280368522 1.8562132176758752 7.671446404870341 0 0 0
225 0 2 0.8976631682534737 1.3856388078637916 6.911075222342625 0 0 0
224 0 2 0.8352813015048187 2.3170552748734496 7.128393871236831 0 0 0
226 0 2 0.5970184408751349 0.538610673550576 6.484226349527249 0 0 0
277 0 2 -1.7929171170543776 -1.8127049440903746 10.479865746273456 0 0 0
276 0 2 -1.4973012711244504 -1.8911435875097973 9.539985185577626 0 0 0
298 0 2 1.8999205720669057 -1.0220847335288832 11.739594776610538 0 0 0
278 0 2 -0.9157099477575955 -1.8872689339136954 10.708383902584295 0 0 0
234 0 2 -0.23751728449383952 2.097405111415386 6.745149554958177 0 0 0
235 0 2 -0.9754401349225212 2.0804129815102117 7.345224494862326 0 0 0
269 0 2 -2.076006803527248 1.1566251766267466 11.637441579096182 0 0 0
283 0 2 0.41557249387959694 -0.6638133419463772 9.023312063040086 0 0 0
280 0 2 -0.06887909477828322 -1.7899652325343063 9.48624689074762 0 0 0
282 0 2 -0.27015642781718546 -0.4335314194472016 8.3470101232599 0 0 0
285 0 2 0.6993433307876232 0.3990429661902281 9.761232778014723 0 0 0
286 0 2 -0.15246044298497047 0.8494812374903168 9.66668273979184 0 0 0
345 0 2 2.049045354285744 -0.7901063376106566 8.226019353002192 0 0 0
344 0 2 1.3073547402044379 -1.0922838223053668 8.666875824023059 0 0 0
266 0 2 -0.829128702358292 2.1362346503722716 10.306744464999849 0 0 0
222 0 2 -0.10973076765591012 0.9459874241593723 7.369398943117719 0 0 0
265 0 2 -0.123629315093382 2.5249688494928395 9.778562522827857 0 0 0
264 0 2 0.5831549456573702 1.9522882890141557 10.033718929709122 0 0 0
284 0 2 0.048168692244821405 -0.35995606325863755 9.833625750763305 0 0 0
260 0 2 1.0739936377617676 0.9901007170840666 8.77436266820655 0 0 0
261 0 2 1.8430588795625849 1.5245238369865473 8.850815530491555 0 0 0
295 0 2 0.7850414654197309 -1.6376029164687105 10.6005169019193 0 0 0
296 0 2 1.311059436738075 -2.132740921346596 11.312071130797719 0 0 0
297 0 2 1.7759189510252846 -1.38065543875642 10.844393125288198 0 0 0
275 0 2 -1.9326774508623021 -1.0145790261975907 9.488436407095348 0 0 0
274 0 2 -1.2065588675470815 -0.37390819007941944 9.14805615323742 0 0 0
299 0 2 2.1362542317818063 -0.659616388474853 12.607525613772982 0 0 0
300 0 2 1.4321747187417784 -1.318615371096978 12.774484944254977 0 0 0
268 0 2 -1.7315608194519652 1.2360812072170648 10.755652506842692 0 0 0
270 0 2 -2.426805498794351 0.4758437781309517 11.022327527560781 0 0 0
271 0 2 -2.423593165809951 -0.49067008666793416 11.165366043169172 0 0 0
272 0 2 -1.4818065333771244 -0.34288661230106116 10.96414223768675 0 0 0
288 0 2 -0.8087389699075495 0.46657267346586334 10.85715859110904 0 0 0
287 0 2 -1.0420783024690314 0.8669487167063716 10.030538425784723 0 0 0
273 0 2 -1.394141218015115 -0.07986705582930659 10.060981151791447 0 0 0
289 0 2 -0.4233935401380094 -0.4217751332309476 11.054315225891262 0 0 0
290 0 2 -0.5014457343990427 -0.8470541636258349 11.939111496312076 0 0 0
342 0 2 2.0820899280699714 -0.4714577243706587 9.95604442985307 0 0 0
343 0 2 2.075013851291061 -0.9988960771943486 9.197164021161774 0 0 0
341 0 2 2.6136918870555093 -0.04668090731573758 10.646519790777337 0 0 0
267 0 2 -1.7372202425873116 1.8397209893334108 9.965180929388993 0 0 0
334 0 2 -0.49290591006693857 2.330560959301398 11.334499980212133 0 0 0
263 0 2 1.067940758927752 2.251815152340085 9.301377516108 0 0 0
262 0 2 1.2751809556173734 2.1678151185474746 8.380775805123996 0 0 0
327 0 2 -1.364706156119458 -2.1325566123567734 14.093081004029177 0 0 0
302 0 2 1.0303869634586498 -1.9164242158906177 14.506467402586651 0 0 0
294 0 2 0.15923746786195642 -2.416253775878388 10.564731411493536 0 0 0
303 0 2 0.06871360452021225 -1.748687080674404 14.318233811851275 0 0 0
301 0 2 1.1043809709975192 -1.728951416666084 13.588066206254164 0 0 0
328 0 2 -1.6555517694567043 -1.5959137218140864 13.403682240325725 0 0 0
331 0 2 -1.5756482992050704 0.7346422640750214 12.398843432868187 0 0 0
330 0 2 -1.9885054126688595 0.1849502236813296 13.107283376694815 0 0 0
329 0 2 -1.5075793273183773 -0.6198289598994954 13.377204716832042 0 0 0
293 0 2 0.06989681572094024 -2.2909147003604624 11.545178800147324 0 0 0
292 0 2 0.37779035841309366 -1.5843064028049645 12.08968505981716 0 0 0
291 0 2 0.19990610786132468 -0.7857848791574635 12.605107526519538 0 0 0
312 0 2 0.7590110813784086 2.2484520735725124 13.040887104659182 0 0 0
340 0 2 2.1466924842745496 0.6194333746728422 10.129530445785816 0 0 0
339 0 2 2.1318671992009466 0.9285901245444895 11.001948077333509 0 0 0
313 0 2 0.4375738530625124 2.5448965061593958 13.896490852178573 0 0 0
311 0 2 1.2675675524569334 1.723773133667775 12.427040028494757 0 0 0
310 0 2 1.7668876158416236 1.2617045513245426 13.131123157962787 0 0 0
332 0 2 -0.8297198964028911 0.8420987860199174 11.784971306205541 0 0 0
333 0 2 -0.5977703437538334 1.6869479266671275 12.045680934108269 0 0 0
336 0 2 0.8706099697033047 1.6051925981388468 11.113940157790061 0 0 0
337 0 2 1.1868081653061813 0.9319212369438387 10.506271052321672 0 0 0
335 0 2 0.4926000916181227 2.5283818181562867 11.296681092778519 0 0 0
338 0 2 1.3503372279359773 0.6115328548968646 11.398603815557795 0 0 0
326 0 2 -1.2383538441750974 -1.9428560096031777 14.988648794782085 0 0 0
325 0 2 -2.153220837908431 -1.499545072117496 14.957347036449812 0 0 0
305 0 2 0.26433257848031333 -0.3848420285964156 14.659175675198027 0 0 0
304 0 2 0.14092389204593284 -0.8991441059525295 13.86708319123376 0 0 0
306 0 2 0.9331601984723207 0.12611797454537413 14.25044909258326 0 0 0
307 0 2 1.5948231284544585 0.08703420204760295 14.971040101623908 0 0 0
324 0 2 -2.1593260475058575 -0.9064192438298139 14.188881704744455 0 0 0
323 0 2 -1.9025296113064043 -0.3933226667492963 15.05610049591051 0 0 0
320 0 2 -1.3172345825883587 1.9972642997078385 14.017602551631985 0 0 0
319 0 2 -0.6957034337732867 1.3486091386592969 14.45204043444656 0 0 0
318 0 2 -0.6174339708660435 0.4384654587738821 14.1598805916557 0 0 0
309 0 2 2.272795152205769 0.5150204463425403 13.54453886334301 0 0 0
308 0 2 2.201155361362349 -0.09128142137671834 14.313347584553595 0 0 0
317 0 2 -0.2808273660544375 0.8889717320601338 13.457717407065049 0 0 0
316 0 2 0.35248868031789193 1.1058831537923384 14.168035174554202 0 0 0
321 0 2 -1.507481018723804 0.9968536598894028 14.03835131100917 0 0 0
322 0 2 -1.833126043794822 0.510945025003351 14.778446255004345 0 0 0
314 0 2 0.03748129858707361 2.615627131031233 14.786034287446588 0 0 0
315 0 2 0.6268557103833413 1.8812803062280714 14.644271636403912 0 0 0

Velocities

86 2.1329235978166134 0.3230335320545873 0.7366107697693256
85 -0.20845728590680065 -1.010252592869331 2.7495922774386217
84 -1.2582356921457871 -0.6817796524685815 0.35504925029228174
127 -1.5848865481524725 0.5871027166036139 0.3113757272433164
126 -1.0330056603122209 1.5727066345728349 0.798471757480687
87 -2.1679236554446 0.22463083743781867 0.5509366925900446
89 -1.1908195664513286 1.2822771931313113 -0.9937214536251076
90 -0.4823695306731882 0.24802715255857705 -0.10076125592604318
117 0.14957930131015482 0.9980680618555233 -0.3893786337949325
116 -0.21510682035505957 -0.6422761089679536 0.5161742902516959
125 -2.6973348820454452 -0.0064391905452340775 -1.1608686507797343
119 0.8871806177677065 -0.8958597317276877 0.12550251520660005
118 -0.3362746615302333 -1.4478323039709924 0.10358768255625087
114 0.7469113723319453 1.2778547646391296 -0.0232773466102128
115 -0.7520070796496997 -0.320854683854139 1.06311300607291
83 0.23940890867593956 0.5318935404293046 0.21475275544822092
82 0.5002512787323761 -0.22848339540064702 -0.35495227256239587
129 -1.3862904838713481 0.03657055418318304 0.9414667142356394
128 0.7598126725050998 0.137770519871261 0.09851631425753138
123 -0.35615185837584007 -0.26413279705973775 0.07148994467840206
88 -0.4084430216467932 -2.7691203310578936 -0.4224931659559428
91 1.0106907748645246 -0.611289766404677 1.091333820797338
80 -0.3120019109166446 3.19448839751378 0.6048624174162508
81 -0.1289585563552138 -0.14544616005581656 -0.38565052578052583
79 -1.5083139302271875 0.7530429524620051 0.00987197419151889
124 0.3927511125656823 -1.2365304953894887 -0.146815827960869
120 0.30114979641163125 -0.329566231054503 -0.4377819330578114
122 -1.8734254003434458 -0.12934963007752576 0.6519971676548956
121 0.6009494024039015 0.23606599634545164 0.41524186937093954
92 0.2896865578924289 1.4415312186944709 0.7157089309840227
112 0.7742938052964735 0.09810162160944007 0.13984035622921925
113 -0.11523600136196933 -0.16031464251150698 -0.9243079650643212
78 -0.38009706326868264 0.6639233151110557 0.2661450742202474
110 -0.4717789269901079 0.37346471986257546 -0.5048188804620806
111 -0.5174120742146748 -1.7838069165016435 -0.7812962863095428
131 -0.6134128311693492 -1.2472149100680738 0.31064456513456484
130 1.2144986125360675 2.2532584076533166 1.1380808976517998
133 -0.9482337180550843 -0.9315068129991771 -0.06485258987774786
107 -0.7858010959508145 -0.2827870612159364 -0.6493127735697792
106 -0.8327794022117208 2.2270732628049195 -0.7486746950848235
100 -0.09189837014622333 -1.2109104274736344 0.03718632762988071
102 -0.5460753150871336 -1.8907535120138934 -0.5614968713894685
101 0.3463185248388765 -1.6321166008886856 -1.4199357742506704
94 1.0191299800862734 0.3959901192207455 0.43824038419236644
104 -0.02614978279743605 -1.0891099109006583 -0.24495260384403456
103 1.8541082246664056 -0.1705699933294415 -1.0577591240014144
105 0.4199362942218114 0.5151692398863572 -1.30123452654493
77 -0.7781492169621789 0.6724400085152432 -0.738124859087954
29 -0.06939828142142784 0.4643448500471657 1.2310496395480617
109 -0.8389881824525035 1.0843522208484446 -0.08560272348927506
108 0.12788803998872317 1.286089843968161 -0.49819998450701625
93 -0.7210312725081681 -1.0114106319249003 0.8083549998732364
95 1.4185553978088536 1.097662228509229 -1.2579277616420204
76 0.4597917682284024 -0.24636443473474318 -0.2880933807773931
75 -1.3589803848863542 0.8243791928353453 0.6856452942086448
74 -2.92933155809471 -0.9629391076050695 2.009856560923456
73 -0.5172648942820586 2.0286161735803105 -0.23237304460868724
134 -2.0750896057954407 -1.1724834701129736 -0.33619680730052687
135 -0.6651335520862653 -0.13722291458546265 2.053580687131932
136 -0.24033981533058094 0.2089539059607335 -1.0819849476066943
132 -1.6165444927201742 -0.8314877333360469 0.5157284718908002
26 1.214756545743719 -0.8393501932973274 0.7652181244601788
25 0.5876835035759221 -0.8112326952411187 1.6682880738755381
99 -0.9426064379486725 -0.2819969076560887 -1.364018387948649
98 -0.5401729151981942 -0.10731678195103395 0.584082301343942
137 -0.8471249751219018 -0.06538154671326449 0.565759994144469
30 -1.2976255188426262 -0.8565327172148787 1.4063614748808935
31 0.6673382528753209 0.3887031558925661 1.9667172424746033
70 -0.6213579950305037 1.6935589674913962 -0.322458676634104
27 0.4365862084852049 0.9144603466262661 0.8771305260052522
28 1.6478476967348292 -0.36432035352705017 0.7411417385232331
24 -0.5689676339306121 1.3501099653102429 2.0619201683783106
97 1.8887965917683618 -1.7610266892154782 -0.1358915429731284
96 -0.3936616253210982 -0.07447426890016143 0.2043470230931004
72 -0.7980990657149951 0.24878152528324418 0.506574830336936
68 0.6109103503922452 -0.6671873490364908 0.8226499305914288
71 -0.17722762211282675 0.7515301950697828 0.9682168161130944
17 -0.33696059412998136 1.0997095995333728 0.04397821353693143
18 0.5245630476328503 -0.7639242121959594 -0.353317520260028
19 -0.8151007333451354 1.215194253873803 -0.607647511162102
20 0.2533552895953839 1.0656736135721796 -0.815944236107215
21 0.4415442976218003 -0.7733032745662854 0.0596808045131444
22 -1.6013400967217353 -0.06129507253766858 0.5292689154833857
138 0.9983407037498971 0.2632683868829986 2.300419109396701
140 0.012231975055212424 -1.7831539041111688 -0.35272753673299406
139 0.11378017617462009 -1.6071375312409109 -0.13915065728405526
141 0.9626111771480381 0.22306373271350854 0.5487245347792418
32 -0.47077406219003515 -1.166577008973809 1.173054567524382
33 -0.33599506386971745 0.6496924048485662 0.774450623277025
35 0.5182015855390204 -0.2710272166934124 -0.2915613053804508
34 0.016937558601296754 -0.7290533444657774 -0.3858978804550461
36 0.6400219352381563 -1.9057521374247766 0.9361381719923744
23 1.8855574589488977 -0.35287347895080196 0.11845151126141151
37 0.5986410642231874 -0.004453751916099036 1.2128999220497296
67 0.33019277274280134 0.6792846903927952 -1.339576521500216
66 -1.0621876776775772 -0.75801016092933 0.2747164999962143
65 -0.6106857478906405 0.3334351853107558 0.9245176280986034
69 1.0978316663791836 0.9942372273818831 -0.7120851272197637
63 1.032019235868321 -1.6095807443549721 -0.017584914334109983
64 0.6422277466307952 0.8471645828426732 0.09787706704047258
16 -1.4077384558359567 1.5275478513272371 0.14065988656908884
15 -0.3057316715880737 0.09012686140944348 -0.35632843094183975
12 -1.0268537045296064 0.834103900104111 0.1843107936872816
14 -0.225742311028779 1.3301994625432574 0.7474458993793468
13 0.8203820469989471 0.21023864125890632 0.15663975229814683
143 0.01922843972000471 0.496331584316845 0.7133428356733874
142 0.6278056356846793 -0.7280619299673756 -0.05201449035447297
144 2.155701697675677 0.49196820040834016 -0.4359128450177052
11 1.0690725137424721 -2.1323060070736264 2.0809506290678326
10 1.9462459494167097 1.2971002118284376 0.7855081946831743
39 0.07972859095241586 1.553247756802465 1.1398723096239407
46 -0.5263678521411237 -0.16240643654599485 -0.0592027237247557
42 0.01514670618638339 -0.8761382542197789 0.3426872153866425
45 -1.4652125671686764 -0.297623747340519 0.17671299883262964
44 1.0889834929388218 0.1794110797251768 0.010846663376179379
43 -1.5977564788144225 0.2084614332655877 -0.6248366679785924
40 1.005873207637855 3.64158392786116 -2.086960689998296
38 -0.3846115337424035 0.12226227163542738 -0.9946454413092749
62 0.5838710686877524 -1.7337191387780564 0.699780632033223
61 0.7454246563217288 -0.4127967494728225 -0.4121333563691519
145 -0.22012485915697644 -0.242337324503629 -0.14032769862227557
146 -0.2508520936891465 -0.4742724424527349 -0.9518524806221313
147 0.32465504514864524 0.36369458506432584 -1.6140545955231889
148 -0.05691239703261107 -1.8627428996506414 -0.3371795699937553
49 -2.5286267479313547 0.3267852187149649 0.5526309755012374
51 -0.5480726361547241 -0.5949833238193921 0.48839281636323456
52 0.15254672387352441 -0.6610164528748629 -2.307773329818076
158 -0.45114835537121695 -0.9466292235734179 -2.104677380573552
8 -0.25630811353358174 -0.8548995856904577 0.021687823673999067
9 -0.496205197244344 -1.5896827320505105 -0.39652692052687716
7 0.2981512551608627 1.0782471469280308 -0.6899038607502929
48 -0.03020014454059025 0.25811835049356424 -0.8068500776968114
47 -0.42957248217205934 0.2645169166904249 -0.22500375849434276
41 -1.6161653589603695 -0.7266696858934238 0.9660971179456168
59 0.24650189179690782 -0.9201857496468575 -1.9359628316863877
58 0.021726979449956885 0.2807954506225361 0.05921804959431753
160 0.6315587553399254 0.6936611771665071 -0.20759247554090735
159 -0.8733230889056877 -0.6110513520570143 -0.9907507962254427
161 0.10688745727844234 0.6937114695506189 -0.8196845102940763
162 0.42594908042918933 1.370073810305155 0.7708897960701282
163 0.2036756594774641 0.8725069185526938 -3.236622039851828
164 -1.749112769194224 0.9820924826763651 0.14778888635050447
60 -0.14675024632140615 -1.4593238223147487 0.007672296382403028
149 -0.013320661622820671 -0.4673254914021935 1.0950105607012643
150 -0.2732614004407091 0.3400759627873286 -1.6314135280921698
2 -0.8168926339139398 0.02877962907380116 -0.4466609211176942
50 0.30352446289262136 1.0735456789650155 -1.3474307266166055
1 -0.513339295888585 0.12313433648310018 -1.5298572227734697
3 -0.4261835129730158 -0.8944207576450491 -0.2829110817904825
53 1.3517249909248195 -0.0644800773255059 0.32941382607097186
54 -0.6648307741717934 1.2574810414740378 0.5862628514613708
157 0.9931993634825714 -1.6584670336830063 0.9933402189716929
6 1.0041165668876737 -0.8023446103898269 0.19003893983338768
5 -1.1999424562837016 -0.15817728352757188 -0.543336562940268
4 -0.012766290854584715 0.4479194725474276 -1.396120696658332
56 -0.7128844873060762 0.448375684966159 -1.055410824957093
55 2.4711193576892385 1.4539896813392792 0.07623740455438976
57 0.8732477626899883 -0.01952073155370679 -0.6617816599948985
156 -0.4103215904442015 -0.6271591938756351 -0.38006269060747294
165 -0.7049640376847062 -0.601138293008904 1.054109464375177
168 -0.02058734282868964 -1.9939738783841534 -0.8285563253247233
166 0.6374051751938499 -0.3322298931560333 0.9285643259657158
167 -0.8542335407752488 0.3732332715182973 0.5304272037991473
199 0.2178224108545327 -0.23163237319473845 0.5614031116669167
200 -0.38429515128221026 0.2108247205770911 1.6343882880273117
189 -0.6483798305941277 -2.380137674282863 -0.23051311023655102
374 1.0213231192335852 -0.7406928967869404 0.02270231050990154
151 -0.46426174810782445 -0.4122563320977223 -1.6776906727717655
198 -1.1455738166185951 0.3948868694573605 -0.6582668608166267
197 -0.3776472226879875 -1.290702151941403 0.3017286706716817
152 -1.2043596829991465 0.08490879173782875 1.5058766775156005
153 0.09124637852306353 -0.4848567437608839 0.9410426459107322
184 -0.3576373572601428 -2.0730815915317113 -1.0475899813316294
375 -1.7263584802390726 -0.5564499867413459 -1.718512678809717
376 -0.23485521226841602 -0.3698514975686835 -0.6539742537111503
377 0.3849519600107408 0.1873852646471681 -0.7279880080096525
378 1.1277358332165535 1.669582544803291 -1.649236006500401
155 -2.200474865808341 0.27303139680527877 0.13250718676755482
172 2.238612101836737 -1.1931073321382522 2.274166944156797
171 -0.9400091503962519 -0.4534044982644061 1.1033532500217795
154 -0.40864250869506413 -0.6791497678636271 -0.8695522482311235
182 1.5211005194576017 -0.7974351778922611 1.0184213794759356
169 -0.6670496051409912 1.750168425098808 1.2704928039594248
173 0.05036682409228612 -0.8948200142442412 -1.4974347154306995
170 1.07585803250106 1.2141983220436026 -1.1892318000150275
183 0.7265106259742359 -2.0541564936371337 -0.07533082378630673
192 0.5558363154219765 0.7228295405513174 -0.03865816367242353
193 0.4401479387257068 0.838874412462142 0.9724078620675639
190 -0.7991240713790706 0.25502790692538246 0.24686374110689163
188 -0.20552559867666548 1.0137430236474678 -0.7385213665565347
191 1.1547065007782897 1.9030541666203582 0.04166061455197956
370 -0.19840720592486522 -0.9567248217162994 0.010997966757734907
371 1.2768861287250022 1.1561111788314269 -0.06993774168188349
369 -0.47393947467917863 -0.6286836652460169 0.1188552016039048
373 0.7013092459798406 -0.30530905765893235 -0.4490415309677594
372 -0.7189351953904658 -0.33872574166185343 0.7591469728845908
196 0.4791761104626999 0.36283109154079446 -1.504608571787255
175 0.2744039523877787 0.6472567161328833 1.5817726523358455
194 -2.032910357066811 -0.30353639069563243 0.48774492801990954
187 1.852854274641587 0.31041937420638377 -0.09658447094258334
186 0.6691591382489313 0.9659778217724858 -1.0542869084391042
185 0.022262149349582497 -1.2282394859797616 1.1341976357124197
174 -0.956987417443884 0.1404935275527902 0.21035151399281113
379 -1.347159479998524 0.3274649624605872 -1.0520338280026418
380 3.174348102007241 0.5752787537147616 0.5325231356506575
381 -0.8726453494450677 -1.8458167128501717 1.0889409924659095
179 0.20573313810053945 1.0843414595203567 -0.26443710258816067
176 0.19901891002950017 -1.9632820072430468 0.4681511097153457
178 -0.873976848023235 1.1597286229983093 0.5160980182703022
180 0.09889651454378157 -0.5326856157410221 0.5961543814317242
181 2.2763055065324567 -0.8193415328784658 1.9959896621014739
367 0.8116409297649375 -1.7175112154585706 -1.6427642294919114
368 0.2994054864860142 0.7543062063105664 -0.881630420905353
365 0.6248116890591147 -0.6763553260181607 0.31851045357365254
361 -0.6425905980129258 1.6727674610373213 -0.07453256703295258
366 0.5193479634324559 1.0387061237269737 -0.6295002552652331
364 0.41864058165803636 -0.19578458084678818 -1.1629600412559065
362 0.7043626562703654 -0.787698566653714 0.32461022242349247
195 -1.4224529294317032 -0.6912167920250201 0.6252139932637
382 -1.1566100393901313 -0.09813828113654338 -1.4372855036244159
383 -0.5315762239292863 -0.8908313809770875 -0.5436969621022563
363 1.402694866519644 -1.3920267427904498 -1.0966262803616966
395 0.047098449508429646 -0.772293794585918 0.06668614429292527
388 1.8361773989240908 -1.2413975605274135 2.1716089265412553
387 -0.3311821207556129 -0.2975694593049337 -0.7029536947982661
386 -0.17767136616594087 2.085545247955526 0.636234138188335
177 1.2200214190087222 -0.24801631064810362 0.7139798249882262
384 0.6076598770440869 0.3877758424104926 -1.5761825708144228
385 -0.7468080203498633 1.1416400919674563 -0.32263193524006867
205 -1.675995029468344 0.5244986489520049 -2.779619451312837
360 2.296719311652056 -1.0424389023899647 0.4367457879799482
359 -1.1928401915214362 -0.23240167343289364 1.5829235437351807
204 0.30612408882161735 -1.099225793525507 -0.14856116268184888
209 -0.04544292627298441 -0.7644545452257828 0.5042977590937119
208 0.6577672827309996 -0.2260919736291293 -1.2331030656952868
358 0.777119951899927 0.037143544766294265 0.7404892683035194
357 -0.7644825614725522 1.4481476285921526 1.8387761816072241
394 -0.30374777505539075 -1.3028332769580213 0.575345365300642
396 1.302396779026579 -1.2993831883900584 -0.9344624387460695
356 0.5907513449386563 0.7772993713001322 -0.4667796708390261
397 -1.8020399915348237 0.6560002528824239 -0.5162457616566578
211 -0.4635043633571372 2.17324955900339 -0.2575918078252944
212 -1.3779516528259836 0.5332035321742841 0.01350709733746297
389 -0.6152016118825221 0.7744330416542866 -1.4775539738187553
390 1.3064467146525436 -0.7917453375912268 0.045952485544340005
392 1.0774780210836665 0.8845202876289633 -1.3781955954371052
393 -0.1419740155478679 -1.5942224343829632 1.7813253390691741
206 -0.5624474981042844 0.11181613274967447 0.729869703517155
203 0.4780197305015114 0.8123847487352549 0.9880654020868583
202 -0.1025376588129486 1.4816389738445153 -0.28640039753104307
201 1.4055132039374674 -0.2996124241159773 0.5871769013104078
210 0.8656050223938484 2.3533354865533394 -1.1357373629571392
207 1.6316804340093767 1.1373398963890107 -1.2182187620266505
217 0.08471737656178224 1.271745142608281 -0.7769504337473702
398 1.4465470399596074 -0.6973996027792231 -0.4715306116499841
355 0.8307077773891245 -0.25396113128246 1.0350968657798671
399 0.4609920638183366 0.456231359844043 -0.4791867627744133
353 -1.134058029045915 -0.679482256323627 -0.08583326072910581
216 -2.436180906787085 1.2021503309051125 1.5633978006399307
391 1.960661374429847 -1.084509654471701 0.5511701511743888
213 0.16510503777491226 0.2223156903270294 0.1819525764765711
214 0.40794438450642245 0.006980247198456524 -0.2749406204654651
354 -1.2084847091023634 0.20249860949914106 -1.598088948797789
252 -0.06581331445227649 -0.2990814766873509 -0.22991043752880375
243 2.033022215508637 0.42922637263336905 -0.6281555966556426
251 0.3863042762039779 -0.27348509389008707 -0.9453555745427334
250 1.0153255701325334 -0.27236800233026437 -1.4071480984117593
249 -0.14210023040754524 0.10275861076968476 -0.9326038803550512
246 -0.534747281084889 0.04614966049579545 -0.6794880920654695
349 -1.0073860111448665 2.3134919011215755 1.3417503673145061
219 -0.7867900725393148 3.0671941328798606 0.07249846956586543
218 -0.20276401912680642 -0.13328160623411328 0.4258929613729726
240 0.8188318772295855 -1.362053943861849 0.6573478830146571
244 1.2944072829428326 -0.6768979888976124 -1.145385996294644
241 1.013970655839543 -0.1970363442452943 0.11055596759685918
242 0.36207973986329706 -0.04143615229716413 2.201189356558936
253 1.3406966893398105 -0.49526634824637816 0.18593466262621422
255 -1.2207447701385077 0.0511581963948496 0.8255393175712304
254 1.9137695851922003 -0.1271903678869734 0.12451851399835923
400 1.8297414736884388 1.7556835666542887 0.2550397305136216
352 2.128555672911064 0.4119340056503946 -0.20207413364726104
351 -1.2332592783632033 1.185994699804368 -0.22127583195364928
350 -0.05653689714518805 -0.1831581290681828 0.8376753082569592
215 0.5600395809356783 -1.1631792092986561 -1.184242682922819
231 0.24152366930367697 0.473449934135875 0.7386745807987496
230 -0.1219120525876547 0.12021529846425197 -0.9465308059791999
229 0.38476525898251535 0.2902144886930484 1.182240245083428
227 -1.4803485635688731 1.373718483444194 -0.14134783251084126
228 0.7101038852802694 1.2750232540084698 0.1593492131230192
247 1.2911533701173388 -0.24363496004223478 -0.5632520542294167
248 -0.8008144594161539 0.11287732384117063 -0.9039472547215939
279 0.6908059798524346 -0.636178703399918 0.568398231243095
348 0.16828908429913642 1.3702890278090734 -0.011942034469806767
347 0.43664174352436885 0.17548436742232015 0.9933460691503764
239 -0.25110239473487783 1.2981496616586357 0.5888392348926231
236 -0.08762989195821225 -1.1209508518644513 -0.2769484757825264
237 0.5991108929673074 1.3054132693494473 1.9198094929051897
238 1.4472549205646925 -0.09491547864711347 0.9098271901774744
221 0.42845324783774785 -0.24203235220447794 -0.6437195807908795
220 1.6428300569635186 0.3933813500807611 -0.38589608783895274
245 -0.979380133771147 -0.2924875792444389 -0.498993813231246
256 -1.7492854268716944 -0.036591036540912864 -0.11838942934793353
281 -1.1013754143283379 -2.4077829233082872 -1.8214647242097632
258 -0.8995529612815145 -1.7116425664781205 -0.36929001411056384
257 -1.309514980251836 -0.54785492023848 0.8719414905839298
259 1.6147723003433474 1.475108700355238 -0.14075418232476594
346 -0.5169741623836891 0.6971519689174158 0.4974953803628258
233 -1.4711256796490657 -0.3039620525546085 -0.6686847617834495
232 1.0367953116634316 -0.02220231651831117 1.44101641727265
223 1.0375252703755358 -0.48198375327876014 -0.23279896551702298
225 -0.16016830680389366 0.41491613668493754 0.1534424960695892
224 -0.3731338281901249 0.15801956836195918 -0.40317479833353576
226 -0.005197436025780405 0.7793754388515199 -0.39368130539559515
277 -0.7516849643259407 1.405064731722812 0.908581646406735
276 0.11908022935707055 0.5717265539339345 -0.9129361330463165
298 0.12862783359880214 -0.9940875755273697 0.7178546417195653
278 -0.0010370185312262858 0.7358092442657956 1.8512547279507705
234 0.8426704916885174 0.360328169062497 -0.5973579101625512
235 1.3809774878825207 1.607143820165656 -2.1245108804949893
269 -1.1901393964659324 -0.7498705950036951 -0.8546257671970002
283 0.6302671058982994 -3.0057552231370055 -0.7239672539015484
280 0.6055372497962581 0.4332115080663865 0.2653136414113119
282 -1.6508412695498884 0.3307204060768443 -0.5061090162601163
285 -0.4532533046834551 -0.4093963098654462 1.5107395318481596
286 0.6002648361532585 -1.69419615959648 0.11849464454676341
345 0.3371971755201027 -0.7434210932550979 -0.5820995310666557
344 -0.9154388940215351 -0.5830205396867822 -1.6916813107992075
266 -0.49761004301438505 -0.09409880408189039 0.6573018559495672
222 -0.008208857990836135 -0.468623059706226 -0.02914308599082474
265 -0.06589883503941046 0.2974979645523539 -0.24291699930312843
264 -0.16875885124017626 0.9599177197900456 0.535268217820846
284 1.1362410169826151 -1.2516311651037724 -1.0425828181931303
260 -1.0433486405477441 -0.7308764867898502 -1.90297347808275
261 1.814092038959948 -0.7681900244315834 -2.4016505572854734
295 -0.8997377691419535 -0.21883393995952954 0.6211074431772149
296 0.29131198232784006 -0.8616782704310485 2.7781886479160263
297 -0.5327231062987 -0.8607070576100014 0.6139966107843928
275 1.37332016941738 1.3612805489480335 -1.2628691654998032
274 0.8853371772415032 0.27223547030438505 -1.3251289959604415
299 1.3954506783355143 -0.12009576891803059 -1.856653695706007
300 -0.12345388889928233 1.712467882635159 -0.7226547086011533
268 0.9407500786775866 0.3884351149338851 -2.0897738660426723
270 0.42688386791260013 0.21095021165829064 -0.19328668652434627
271 -0.4555402042801253 0.39957836690443516 1.2226754837428182
272 -0.006303843244804791 0.30622847663333785 1.4313656699634183
288 -0.5038834340476573 0.3073418846102678 0.530706867187657
287 1.2146781820382488 0.37528187151259296 -0.02179292255051925
273 1.6304683362268149 -0.7505314548026797 -0.3300069844446537
289 -0.8049547789497065 1.0768208553456964 0.38035675905730265
290 -0.5959315988574001 1.3968794279615075 -0.6230474340961362
342 -0.025903400833788066 1.107567421271165 -0.5085589443455107
343 -0.27695634723154283 1.3022085742809295 0.38500219430260185
341 -1.3893623234785033 -0.28158168445892934 -0.23358718922518207
267 0.22789902094811465 0.40354421214461006 0.3853597703193484
334 0.8922808491377889 -1.6465249344025585 -0.8365856090711515
263 0.43443801002418436 -0.17999140557886684 -0.446196388969891
262 0.629420715549391 -1.8165817449090516 -1.0146770055172916
327 0.14511324307465254 0.2589557741676841 -1.0777393832360052
302 -0.08976820527817662 -1.0682169340137018 0.14155661126590185
294 0.19764108562853222 0.7578916542647371 1.0464986731083399
303 -1.2176343532511136 0.9384489633260118 -1.6281701537171016
301 0.7630209873589081 -0.2599138703023961 -0.4343026039475645
328 0.3585045819831377 -0.45831712535951913 0.32439781896608866
331 0.5884929589504801 -1.097153962365518 1.0926162277038283
330 0.6210159246915608 1.0788044436324848 -0.09089912222244562
329 1.8711395838477682 1.706476306423119 0.9419739520897754
293 1.1484267596140418 0.45881115136012385 -0.9950904047215976
292 -1.3404018236123694 0.13203406910775606 -1.4661091956951022
291 0.09882718507569706 -0.46895124097641144 0.17223363289401078
312 -0.7717016867849757 0.5359858181102715 1.3353664689070768
340 1.055138158537557 -0.3502427993828091 -0.6545092408898787
339 -1.8282881875359598 -1.219837277898549 -0.4733540861271438
313 0.42397823459496214 0.6347212700208538 1.0237341312687849
311 1.3356819726145055 0.45877445274665996 0.178741074428934
310 -0.993355061455359 0.09650400823816238 0.03438332620571226
332 0.7110457515712052 0.9300222939208925 -0.9909980362766451
333 -0.7449306990923478 -0.6689150495531178 -0.10536605251233816
336 -1.4239448681009956 -0.2630339753480061 -0.9646054723441804
337 -0.17029997128266647 0.7194281648056833 0.39946465941430437
335 -0.3932906918198872 1.223908090442155 -0.4388867662640926
338 0.10974237887392882 -1.5308570176512968 0.4113287683617832
326 0.027168524252557696 -1.344417510859844 0.21319712794236084
325 0.64857250493172 0.39441593435392464 0.30707034832210667
305 0.23178015049884035 0.6308789821843183 -0.9922913078486275
304 0.14968493259751764 -1.7549745316341203 -0.06513550326840115
306 -0.4199573598580916 0.17531037781954867 0.29207949907605485
307 -0.0006183524602909052 -1.0219079822775154 -0.4528382139478422
324 0.4324918996663464 0.6041837981777833 -1.8273697672941092
323 1.0804978709699762 0.07279049939163634 1.626838724713067
320 0.07101485600204316 0.3745299794738864 1.1790083045327866
319 -0.9990207299652009 -0.2516618492338094 0.024487609226860604
318 -0.14969104263842106 -0.03149574105143746 -0.4517908450835013
309 -0.35231345314961193 -0.09152882643846184 2.0085535734377613
308 -0.2933846565556155 -0.4127717394837382 -1.4072084230464383
317 -0.6817379121502946 -1.1128556935512033 -0.018331586166437208
316 -1.0562793990702413 1.7294459893172898 0.7012625372045758
321 -0.13569026248177196 -0.3146449404071768 -0.2841826151299089
322 0.0907575315293691 -0.049606915691536274 1.0056918553673755
314 -0.5711335095562302 -2.3023601895138377 -1.1913708352538162
315 -0.8931799051756891 -2.011506672829236 -1.636303036274614

Bonds

1 1 86 87
2 1 85 86
3 1 84 85
4 1 127 128
5 1 126 127
6 1 87 88
7 1 89 90
8 1 90 91
9 1 117 118
10 1 116 117
11 1 125 126
12 1 119 120
13 1 118 119
14 1 114 115
15 1 115 116
16 1 83 84
17 1 82 83
18 1 129 130
19 1 128 129
20 1 123 124
21 1 88 89
22 1 91 92
23 1 80 81
24 1 81 82
25 1 79 80
26 1 124 125
27 1 120 121
28 1 122 123
29 1 121 122
30 1 92 93
31 1 112 113
32 1 113 114
33 1 78 79
34 1 110 111
35 1 111 112
36 1 131 132
37 1 130 131
38 1 133 134
39 1 107 108
40 1 106 107
41 1 100 101
42 1 102 103
43 1 101 102
44 1 94 95
45 1 104 105
46 1 103 104
47 1 105 106
48 1 77 78
49 1 29 30
50 1 109 110
51 1 108 109
52 1 93 94
53 1 95 96
54 1 76 77
55 1 75 76
56 1 74 75
57 1 73 74
58 1 134 135
59 1 135 136
60 1 136 137
61 1 132 133
62 1 26 27
63 1 25 26
64 1 99 100
65 1 98 99
66 1 137 138
67 1 30 31
68 1 31 32
69 1 70 71
70 1 27 28
71 1 28 29
72 1 24 25
73 1 97 98
74 1 96 97
75 1 72 73
76 1 68 69
77 1 71 72
78 1 17 18
79 1 18 19
80 1 19 20
81 1 20 21
82 1 21 22
83 1 22 23
84 1 138 139
85 1 140 141
86 1 139 140
87 1 141 142
88 1 32 33
89 1 33 34
90 1 35 36
91 1 34 35
92 1 36 37
93 1 23 24
94 1 37 38
95 1 67 68
96 1 66 67
97 1 65 66
98 1 69 70
99 1 63 64
100 1 64 65
101 1 16 17
102 1 15 16
103 1 12 13
104 1 14 15
105 1 13 14
106 1 143 144
107 1 142 143
108 1 144 145
109 1 11 12
110 1 10 11
111 1 39 40
112 1 46 47
113 1 42 43
114 1 45 46
115 1 44 45
116 1 43 44
117 1 40 41
118 1 38 39
119 1 62 63
120 1 61 62
121 1 145 146
122 1 146 147
123 1 147 148
124 1 148 149
125 1 49 50
126 1 51 52
127 1 52 53
128 1 158 159
129 1 8 9
130 1 9 10
131 1 7 8
132 1 48 49
133 1 47 48
134 1 41 42
135 1 59 60
136 1 58 59
137 1 160 161
138 1 159 160
139 1 161 162
140 1 162 163
141 1 163 164
142 1 164 165
143 1 60 61
144 1 149 150
145 1 150 151
146 1 2 3
147 1 50 51
148 1 1 2
149 1 1 50
150 1 3 4
151 1 53 54
152 1 54 55
153 1 157 158
154 1 6 7
155 1 5 6
156 1 4 5
157 1 56 57
158 1 55 56
159 1 57 58
160 1 156 157
161 1 165 166
162 1 168 169
163 1 166 167
164 1 167 168
165 1 199 200
166 1 200 1
167 1 189 190
168 1 374 375
169 1 151 152
170 1 151 200
171 1 198 199
172 1 197 198
173 1 152 153
174 1 153 154
175 1 184 185
176 1 375 376
177 1 376 377
178 1 377 378
179 1 378 379
180 1 155 156
181 1 172 173
182 1 171 172
183 1 154 155
184 1 182 183
185 1 169 170
186 1 173 174
187 1 170 171
188 1 183 184
189 1 192 193
190 1 193 194
191 1 190 191
192 1 188 189
193 1 191 192
194 1 370 371
195 1 371 372
196 1 369 370
197 1 373 374
198 1 372 373
199 1 196 197
200 1 175 176
201 1 194 195
202 1 187 188
203 1 186 187
204 1 185 186
205 1 174 175
206 1 379 380
207 1 380 381
208 1 381 382
209 1 179 180
210 1 176 177
211 1 178 179
212 1 180 181
213 1 181 182
214 1 367 368
215 1 368 369
216 1 365 366
217 1 361 362
218 1 366 367
219 1 364 365
220 1 362 363
221 1 195 196
222 1 382 383
223 1 383 384
224 1 363 364
225 1 395 396
226 1 388 389
227 1 387 388
228 1 386 387
229 1 177 178
230 1 384 385
231 1 385 386
232 1 205 206
233 1 360 361
234 1 359 360
235 1 204 205
236 1 209 210
237 1 208 209
238 1 358 359
239 1 357 358
240 1 394 395
241 1 396 397
242 1 356 357
243 1 397 398
244 1 211 212
245 1 212 213
246 1 389 390
247 1 390 391
248 1 392 393
249 1 393 394
250 1 206 207
251 1 203 204
252 1 202 203
253 1 201 202
254 1 201 250
255 1 210 211
256 1 207 208
257 1 217 218
258 1 398 399
259 1 355 356
260 1 399 400
261 1 353 354
262 1 216 217
263 1 391 392
264 1 213 214
265 1 214 215
266 1 354 355
267 1 252 253
268 1 243 244
269 1 251 252
270 1 250 251
271 1 249 250
272 1 246 247
273 1 349 350
274 1 219 220
275 1 218 219
276 1 240 241
277 1 244 245
278 1 241 242
279 1 242 243
280 1 253 254
281 1 255 256
282 1 254 255
283 1 400 201
284 1 352 353
285 1 351 352
286 1 351 400
287 1 350 351
288 1 215 216
289 1 231 232
290 1 230 231
291 1 229 230
292 1 227 228
293 1 228 229
294 1 247 248
295 1 248 249
296 1 279 280
297 1 348 349
298 1 347 348
299 1 239 240
300 1 236 237
301 1 237 238
302 1 238 239
303 1 221 222
304 1 220 221
305 1 245 246
306 1 256 257
307 1 281 282
308 1 258 259
309 1 257 258
310 1 259 260
311 1 346 347
312 1 233 234
313 1 232 233
314 1 223 224
315 1 225 226
316 1 224 225
317 1 226 227
318 1 277 278
319 1 276 277
320 1 298 299
321 1 278 279
322 1 234 235
323 1 235 236
324 1 269 270
325 1 283 284
326 1 280 281
327 1 282 283
328 1 285 286
329 1 286 287
330 1 345 346
331 1 344 345
332 1 266 267
333 1 222 223
334 1 265 266
335 1 264 265
336 1 284 285
337 1 260 261
338 1 261 262
339 1 295 296
340 1 296 297
341 1 297 298
342 1 275 276
343 1 274 275
344 1 299 300
345 1 300 301
346 1 268 269
347 1 270 271
348 1 271 272
349 1 272 273
350 1 288 289
351 1 287 288
352 1 273 274
353 1 289 290
354 1 290 291
355 1 342 343
356 1 343 344
357 1 341 342
358 1 267 268
359 1 334 335
360 1 263 264
361 1 262 263
362 1 327 328
363 1 302 303
364 1 294 295
365 1 303 304
366 1 301 302
367 1 328 329
368 1 331 332
369 1 330 331
370 1 329 330
371 1 293 294
372 1 292 293
373 1 291 292
374 1 312 313
375 1 340 341
376 1 339 340
377 1 313 314
378 1 311 312
379 1 310 311
380 1 332 333
381 1 333 334
382 1 336 337
383 1 337 338
384 1 335 336
385 1 338 339
386 1 326 327
387 1 325 326
388 1 305 306
389 1 304 305
390 1 306 307
391 1 307 308
392 1 324 325
393 1 323 324
394 1 320 321
395 1 319 320
396 1 318 319
397 1 309 310
398 1 308 309
399 1 317 318
400 1 316 317
401 1 321 322
402 1 322 323
403 1 314 315
404 1 315 316
