LAMMPS data file via write_data, version 29 Sep 2021, timestep = 53752000

400 atoms
2 atom types
404 bonds
1 bond types

-3.12 3.12 xlo xhi
-3.12 3.12 ylo yhi
-15.6 15.6 zlo zhi

Masses

1 1
2 1

Atoms # angle

316 0 2 -1.001699 -2.259685 -14.882295 0 0 0
298 0 2 1.874182 -0.092136 -13.000944 0 0 0
297 0 2 1.849614 -0.074195 -13.941934 0 0 0
315 0 2 -0.625451 -1.399608 -14.980357 0 0 0
314 0 2 -0.116860 -1.413294 -14.177232 0 0 0
313 0 2 0.378750 -0.591479 -14.086986 0 0 0
299 0 2 1.232975 0.577770 -13.009336 0 0 0
300 0 2 0.492595 1.183053 -12.974940 0 0 0
304 0 2 1.523718 1.698810 -13.478902 0 0 0
305 0 2 0.717259 2.002498 -13.951197 0 0 0
311 0 2 -0.938040 0.328650 -14.355682 0 0 0
308 0 2 -0.740258 1.302820 -14.294032 0 0 0
307 0 2 -0.099493 1.896602 -14.666934 0 0 0
312 0 2 -0.274316 -0.260046 -14.801726 0 0 0
306 0 2 -0.183004 2.167972 -13.696433 0 0 0
318 0 2 -1.767590 -1.099997 -15.059601 0 0 0
317 0 2 -1.537913 -1.675029 -14.302694 0 0 0
321 0 2 -1.483300 -1.627690 -13.312971 0 0 0
293 0 2 0.761464 -0.577268 -12.867848 0 0 0
296 0 2 2.190924 -0.417791 -14.772856 0 0 0
295 0 2 1.480567 -0.946513 -14.304796 0 0 0
179 0 1 -2.575295 0.038289 -13.330674 0 0 0
319 0 2 -2.262962 -0.861349 -14.271770 0 0 0
180 0 1 -2.481107 -0.283619 -12.400376 0 0 0
320 0 2 -2.135628 -0.960142 -13.310178 0 0 0
291 0 2 1.480058 0.205985 -11.875131 0 0 0
292 0 2 0.980999 -0.618515 -11.894807 0 0 0
181 0 1 -1.630166 0.195888 -12.575788 0 0 0
301 0 2 0.696777 2.153473 -12.836301 0 0 0
302 0 2 1.101582 1.872074 -12.008577 0 0 0
303 0 2 1.785508 1.529308 -12.546741 0 0 0
177 0 1 -0.798910 0.638887 -13.286137 0 0 0
178 0 1 -1.655493 0.284042 -13.559956 0 0 0
176 0 1 -1.148503 1.525401 -13.106461 0 0 0
309 0 2 -1.516901 1.773964 -14.464107 0 0 0
310 0 2 -1.618854 0.913729 -14.843590 0 0 0
168 0 1 -0.682112 -2.051652 -10.364362 0 0 0
323 0 2 -0.565475 -2.050831 -12.549754 0 0 0
322 0 2 -0.758166 -1.185351 -12.914186 0 0 0
294 0 2 1.410848 -1.161499 -13.342613 0 0 0
169 0 1 -0.495100 -1.177093 -10.590045 0 0 0
171 0 1 -1.864896 -0.552270 -10.537483 0 0 0
170 0 1 -1.403746 -1.319936 -10.269665 0 0 0
182 0 1 -0.937651 0.332328 -11.892238 0 0 0
289 0 2 2.506973 -0.352171 -11.023358 0 0 0
183 0 1 0.041502 0.223983 -11.971755 0 0 0
284 0 2 1.222830 2.080975 -10.975258 0 0 0
290 0 2 2.254531 0.498140 -11.408026 0 0 0
288 0 2 2.080576 -0.133987 -10.120160 0 0 0
285 0 2 1.608875 1.333575 -10.634672 0 0 0
175 0 1 -1.937225 1.293373 -12.529684 0 0 0
174 0 1 -1.840459 1.568211 -11.565705 0 0 0
172 0 1 -1.584466 -0.107265 -11.315326 0 0 0
173 0 1 -2.191707 0.662761 -11.558024 0 0 0
281 0 2 -0.240079 2.080006 -10.455081 0 0 0
282 0 2 -0.044514 1.523999 -11.227608 0 0 0
283 0 2 0.568440 1.426825 -10.530968 0 0 0
167 0 1 0.166133 -2.525043 -10.053743 0 0 0
325 0 2 0.200203 -2.487838 -11.215981 0 0 0
326 0 2 1.163602 -2.333626 -11.517184 0 0 0
328 0 2 1.193101 -1.741610 -9.629828 0 0 0
329 0 2 0.781416 -1.683718 -8.815446 0 0 0
276 0 2 -1.563083 1.171688 -10.006632 0 0 0
166 0 1 -0.168680 -1.911355 -9.413254 0 0 0
274 0 2 -2.291731 1.078914 -9.090335 0 0 0
275 0 2 -2.440638 0.797941 -9.964204 0 0 0
324 0 2 -0.566694 -2.093998 -11.610442 0 0 0
327 0 2 1.152293 -2.095317 -10.590185 0 0 0
184 0 1 -0.340637 0.076008 -11.140609 0 0 0
186 0 1 0.220873 -0.832641 -9.564403 0 0 0
187 0 1 0.083647 0.125593 -9.355944 0 0 0
185 0 1 0.153088 -0.266655 -10.326046 0 0 0
287 0 2 2.207789 0.749742 -9.786273 0 0 0
286 0 2 1.327672 1.253325 -9.716840 0 0 0
277 0 2 -1.621849 1.884120 -9.397879 0 0 0
280 0 2 0.222780 1.931125 -9.638650 0 0 0
279 0 2 0.176266 2.392531 -8.801600 0 0 0
278 0 2 -0.821323 2.212760 -9.035043 0 0 0
188 0 1 -0.003140 0.889302 -8.725648 0 0 0
12 0 1 -1.969234 -1.587055 -8.470975 0 0 0
13 0 1 -1.622159 -0.764525 -8.219232 0 0 0
330 0 2 0.094169 -1.743482 -8.138532 0 0 0
165 0 1 -1.085919 -1.604579 -9.189239 0 0 0
164 0 1 -1.142101 -0.631619 -9.415877 0 0 0
331 0 2 0.251065 -2.182957 -7.349054 0 0 0
273 0 2 -1.784851 0.574403 -8.391667 0 0 0
272 0 2 -1.289119 1.400906 -8.247793 0 0 0
163 0 1 -0.567609 -0.714115 -8.656477 0 0 0
162 0 1 0.253480 -0.432157 -8.213891 0 0 0
161 0 1 0.909266 0.242124 -8.568660 0 0 0
29 0 1 1.813071 -1.526967 -8.661615 0 0 0
30 0 1 1.370720 -1.739085 -7.829750 0 0 0
31 0 1 1.160341 -2.226608 -7.048671 0 0 0
28 0 1 2.365169 -0.697084 -8.513828 0 0 0
160 0 1 1.471974 0.970951 -8.624560 0 0 0
271 0 2 -1.327962 1.807659 -7.372815 0 0 0
189 0 1 -0.387131 0.688597 -7.847005 0 0 0
190 0 1 -0.060479 1.116803 -6.991749 0 0 0
191 0 1 0.134153 2.053554 -7.131147 0 0 0
159 0 1 1.086390 1.259474 -7.758749 0 0 0
15 0 1 -1.294740 -0.316284 -6.902147 0 0 0
11 0 1 -1.288710 -2.139642 -8.096362 0 0 0
332 0 2 0.028683 -2.577329 -6.492837 0 0 0
10 0 1 -0.716091 -2.123432 -7.358963 0 0 0
333 0 2 0.242751 -2.522254 -5.535412 0 0 0
32 0 1 1.688462 -1.560481 -6.634642 0 0 0
33 0 1 1.448272 -1.126041 -5.823717 0 0 0
16 0 1 -1.628885 -1.155990 -6.612851 0 0 0
270 0 2 -1.158175 1.253501 -6.579911 0 0 0
14 0 1 -1.090458 -1.049673 -7.510231 0 0 0
17 0 1 -2.296288 -1.108412 -5.894453 0 0 0
18 0 1 -1.655159 -1.209101 -5.189417 0 0 0
25 0 1 0.983587 -0.611556 -6.855111 0 0 0
23 0 1 0.363552 -0.768870 -5.938123 0 0 0
22 0 1 -0.031950 -0.028552 -5.561221 0 0 0
27 0 1 2.409957 -0.391317 -7.591034 0 0 0
26 0 1 1.508349 -0.658045 -7.638932 0 0 0
34 0 1 2.162132 -0.604629 -6.180310 0 0 0
35 0 1 2.133965 -0.747032 -5.241935 0 0 0
269 0 2 -0.740607 1.130853 -5.746337 0 0 0
158 0 1 0.981209 0.908100 -6.832793 0 0 0
193 0 1 0.754393 2.280736 -6.002590 0 0 0
192 0 1 1.056147 2.199216 -6.894086 0 0 0
156 0 1 0.959993 0.400188 -5.261285 0 0 0
157 0 1 1.054680 0.160127 -6.193907 0 0 0
7 0 1 -0.765244 -1.780114 -5.022440 0 0 0
8 0 1 -1.163757 -2.201245 -5.738575 0 0 0
6 0 1 -0.367414 -2.153773 -4.189090 0 0 0
9 0 1 -0.778487 -1.746098 -6.424066 0 0 0
335 0 2 0.799216 -2.369090 -4.665357 0 0 0
334 0 2 0.662911 -1.678838 -5.350277 0 0 0
21 0 1 0.134886 -0.163875 -4.547335 0 0 0
19 0 1 -1.700897 -0.311776 -5.084877 0 0 0
20 0 1 -0.800921 -0.293557 -4.811996 0 0 0
24 0 1 0.548184 -1.465138 -6.610113 0 0 0
153 0 1 0.432884 0.724204 -3.979543 0 0 0
36 0 1 1.957299 0.159707 -5.380163 0 0 0
38 0 1 2.404260 -0.951814 -4.123838 0 0 0
37 0 1 1.906877 -0.187689 -4.416374 0 0 0
268 0 2 -1.615931 0.943273 -5.271730 0 0 0
267 0 2 -1.906642 1.465615 -4.506112 0 0 0
155 0 1 1.493518 1.103606 -4.817118 0 0 0
154 0 1 1.407298 0.596519 -3.942507 0 0 0
195 0 1 -0.612265 2.327565 -6.045964 0 0 0
194 0 1 0.053448 1.639768 -6.074128 0 0 0
196 0 1 -0.343178 2.539882 -5.154262 0 0 0
197 0 1 0.446502 2.244360 -4.727525 0 0 0
336 0 2 1.477064 -1.968055 -4.033491 0 0 0
55 0 1 0.041186 -2.053752 -0.615818 0 0 0
54 0 1 0.108812 -2.400358 -1.510836 0 0 0
39 0 1 2.056965 -0.511585 -3.382209 0 0 0
40 0 1 1.636270 0.010168 -2.717461 0 0 0
5 0 1 -0.650894 -2.436591 -3.344323 0 0 0
4 0 1 -1.210143 -1.688957 -3.422855 0 0 0
3 0 1 -0.480793 -1.040265 -3.507140 0 0 0
199 0 1 1.060995 1.960468 -2.943183 0 0 0
42 0 1 2.016456 0.995329 -1.600003 0 0 0
198 0 1 0.528555 2.031295 -3.786069 0 0 0
266 0 2 -1.874099 0.971003 -3.728939 0 0 0
264 0 2 -1.913591 -0.151054 -3.296409 0 0 0
265 0 2 -1.354523 0.156033 -3.990389 0 0 0
152 0 1 -0.343186 1.134272 -3.691065 0 0 0
150 0 1 -0.863004 1.129924 -2.733578 0 0 0
151 0 1 -0.118647 1.704142 -2.942919 0 0 0
149 0 1 -1.716144 1.705860 -2.541225 0 0 0
200 0 1 0.670041 1.094193 -2.813695 0 0 0
57 0 1 -1.272576 -1.711251 -0.057509 0 0 0
58 0 1 -1.088219 -0.881760 -0.429612 0 0 0
337 0 2 1.054931 -2.263345 -3.251342 0 0 0
53 0 1 -0.616925 -2.317955 -2.085770 0 0 0
52 0 1 -1.043031 -1.418822 -1.967136 0 0 0
56 0 1 -0.767587 -2.476165 -0.251443 0 0 0
339 0 2 1.551675 -1.800210 -2.073984 0 0 0
41 0 1 1.922142 -0.012111 -1.768842 0 0 0
338 0 2 0.714090 -1.637496 -2.607316 0 0 0
263 0 2 -2.246798 -0.677016 -2.512774 0 0 0
262 0 2 -2.375543 0.205154 -2.242639 0 0 0
261 0 2 -1.592942 0.040770 -1.691708 0 0 0
260 0 2 -2.458880 0.568582 -1.322350 0 0 0
1 0 1 0.179043 0.267606 -2.539158 0 0 0
2 0 1 0.136709 -0.718683 -2.846418 0 0 0
50 0 1 -0.173965 -0.133795 -1.773617 0 0 0
51 0 1 -0.239980 -1.058844 -1.478590 0 0 0
48 0 1 0.123090 0.743984 -0.532157 0 0 0
43 0 1 1.131530 1.089646 -1.863665 0 0 0
44 0 1 1.756718 1.925563 -1.973381 0 0 0
148 0 1 -1.798122 1.670029 -1.524667 0 0 0
147 0 1 -0.891955 2.023520 -1.653415 0 0 0
46 0 1 0.803169 1.493823 -0.913683 0 0 0
47 0 1 -0.054314 1.328542 -1.326096 0 0 0
45 0 1 1.108059 2.286513 -1.443502 0 0 0
59 0 1 -0.314681 -0.374851 -0.227010 0 0 0
60 0 1 -0.321641 0.410654 0.350107 0 0 0
341 0 2 1.073078 -2.125978 -0.449929 0 0 0
211 0 2 -0.135592 -1.834706 1.541141 0 0 0
340 0 2 0.902264 -1.844015 -1.370332 0 0 0
342 0 2 1.182815 -1.202867 -0.096901 0 0 0
258 0 2 -1.906214 -0.032005 0.280870 0 0 0
257 0 2 -1.114299 -0.334846 0.813263 0 0 0
259 0 2 -1.910841 0.276979 -0.611346 0 0 0
256 0 2 -1.167134 0.153636 1.675317 0 0 0
49 0 1 0.399162 0.066643 -1.089453 0 0 0
144 0 1 0.998354 2.276453 -0.317077 0 0 0
140 0 1 0.727482 -0.258803 0.033926 0 0 0
141 0 1 1.643789 -0.144432 -0.297732 0 0 0
139 0 1 1.244350 0.109323 0.772950 0 0 0
142 0 1 1.824531 0.753142 -0.401438 0 0 0
343 0 2 0.877481 -1.741494 0.627921 0 0 0
146 0 1 -0.586312 2.180468 -0.786483 0 0 0
145 0 1 0.069568 2.028665 -0.089073 0 0 0
213 0 2 1.179361 -2.296529 1.998480 0 0 0
212 0 2 0.286131 -2.150872 2.337556 0 0 0
210 0 2 -0.766528 -1.646211 0.796965 0 0 0
208 0 2 -1.447595 -1.945187 1.638523 0 0 0
209 0 2 -1.697297 -1.375041 0.852613 0 0 0
217 0 2 0.937030 -1.375886 2.955709 0 0 0
214 0 2 1.733314 -1.614116 1.600300 0 0 0
215 0 2 2.344094 -1.128157 2.248376 0 0 0
216 0 2 1.448603 -0.836211 2.346144 0 0 0
254 0 2 -2.469454 0.436022 1.082296 0 0 0
63 0 1 -0.955320 2.182532 0.752069 0 0 0
255 0 2 -2.064417 -0.163585 1.739780 0 0 0
61 0 1 -0.852533 1.000747 0.867901 0 0 0
344 0 2 0.838346 -1.159271 1.392057 0 0 0
62 0 1 -1.630759 1.500869 0.950999 0 0 0
345 0 2 0.203367 -0.452737 1.526020 0 0 0
138 0 1 2.272782 -0.060312 1.007211 0 0 0
137 0 1 2.377094 0.792570 1.481992 0 0 0
64 0 1 -0.019310 2.183349 1.243618 0 0 0
135 0 1 1.948821 0.648821 2.783884 0 0 0
65 0 1 0.295771 1.322221 1.273877 0 0 0
66 0 1 0.515394 1.201578 2.228474 0 0 0
143 0 1 1.803976 1.706885 -0.141822 0 0 0
205 0 2 -0.437822 -2.269380 3.192594 0 0 0
206 0 2 -1.099104 -1.879358 2.628761 0 0 0
207 0 2 -1.659735 -1.211621 2.227551 0 0 0
218 0 2 1.499585 -1.300706 3.656930 0 0 0
348 0 2 -0.631096 -0.373112 3.122053 0 0 0
228 0 2 -0.051094 -2.233913 5.124819 0 0 0
219 0 2 2.269367 -0.928011 4.066994 0 0 0
347 0 2 -0.332896 0.487789 2.882521 0 0 0
252 0 2 -1.809862 1.485333 2.606015 0 0 0
253 0 2 -2.036410 0.808942 1.888577 0 0 0
251 0 2 -2.089765 0.859000 3.276971 0 0 0
346 0 2 0.253482 -0.056229 2.384870 0 0 0
134 0 1 2.052645 0.909942 3.729988 0 0 0
133 0 1 1.128077 0.624116 3.619723 0 0 0
227 0 2 0.174365 -1.444661 4.640661 0 0 0
136 0 1 1.489751 0.817722 1.887958 0 0 0
220 0 2 1.977136 -0.208230 3.531085 0 0 0
221 0 2 2.595137 0.036165 4.270446 0 0 0
222 0 2 2.151723 0.546813 4.962936 0 0 0
223 0 2 2.028319 -0.380608 5.221932 0 0 0
67 0 1 0.400228 2.174606 2.316844 0 0 0
68 0 1 0.884697 1.771533 3.049508 0 0 0
204 0 2 -0.935709 -2.069773 4.023327 0 0 0
349 0 2 0.046260 -0.412923 3.764786 0 0 0
230 0 2 1.675698 -1.654571 5.611203 0 0 0
229 0 2 0.959906 -2.087856 5.096654 0 0 0
400 0 2 -1.250134 -0.790503 5.165980 0 0 0
231 0 2 1.803455 -0.964879 6.222075 0 0 0
203 0 2 -1.497243 -1.654411 4.628119 0 0 0
202 0 2 -1.779441 -0.856217 4.184957 0 0 0
201 0 2 -1.682586 -0.019418 4.758710 0 0 0
250 0 2 -1.579631 0.200191 3.813442 0 0 0
226 0 2 0.721890 -0.850897 5.227825 0 0 0
350 0 2 -0.357083 -0.537917 4.627059 0 0 0
351 0 2 -0.411807 -0.951562 5.601048 0 0 0
224 0 2 1.344320 0.143647 5.598329 0 0 0
225 0 2 0.445438 0.034144 5.359852 0 0 0
249 0 2 -1.269438 1.105167 3.940538 0 0 0
130 0 1 -0.756714 2.223078 3.751215 0 0 0
248 0 2 -1.509927 1.649437 4.699103 0 0 0
132 0 1 0.199219 0.940767 3.708406 0 0 0
131 0 1 -0.177145 1.632592 3.200553 0 0 0
69 0 1 0.865164 1.658400 4.002796 0 0 0
70 0 1 1.057478 2.075858 4.837046 0 0 0
71 0 1 1.022175 2.120264 5.791260 0 0 0
398 0 2 -1.407589 -2.095591 6.341869 0 0 0
399 0 2 -1.662159 -1.247462 5.934227 0 0 0
232 0 2 2.487694 -0.403574 6.540572 0 0 0
233 0 2 1.644345 0.158076 6.774192 0 0 0
357 0 2 -2.370212 -0.625189 7.825206 0 0 0
355 0 2 -1.094975 -0.801625 7.477042 0 0 0
356 0 2 -1.752381 -1.333906 8.024992 0 0 0
358 0 2 -2.534766 0.264623 7.304486 0 0 0
352 0 2 0.332106 -1.320740 6.162678 0 0 0
353 0 2 0.362652 -0.487919 6.629612 0 0 0
354 0 2 -0.393239 -0.989807 6.849643 0 0 0
74 0 1 1.170861 1.390169 7.981052 0 0 0
75 0 1 2.114432 1.488446 7.739246 0 0 0
247 0 2 -1.772028 1.923463 5.606588 0 0 0
129 0 1 -0.466421 1.800201 4.582688 0 0 0
246 0 2 -2.035036 1.067018 5.889820 0 0 0
128 0 1 -0.566744 1.576185 5.515366 0 0 0
245 0 2 -1.810318 1.512255 6.716532 0 0 0
72 0 1 1.263898 1.797368 6.668242 0 0 0
73 0 1 1.018623 0.960348 7.194286 0 0 0
396 0 2 -0.952521 -2.412839 7.761973 0 0 0
397 0 2 -0.673016 -2.470578 6.839564 0 0 0
234 0 2 2.100341 -0.308777 7.525539 0 0 0
236 0 2 0.911541 -1.351241 7.055500 0 0 0
237 0 2 0.282369 -2.044355 7.008006 0 0 0
235 0 2 1.581725 -1.119647 7.746388 0 0 0
359 0 2 -1.839096 0.205772 7.989890 0 0 0
360 0 2 -1.736098 0.006112 8.949624 0 0 0
241 0 2 -1.001825 0.638612 8.557513 0 0 0
243 0 2 -1.100859 2.086678 7.670884 0 0 0
239 0 2 -0.165317 -0.898209 8.307099 0 0 0
240 0 2 -0.368869 0.055497 8.175446 0 0 0
242 0 2 -0.818417 1.549348 8.456314 0 0 0
76 0 1 2.439039 0.808786 8.371434 0 0 0
77 0 1 2.025474 0.102963 8.864107 0 0 0
78 0 1 2.150754 -0.778364 8.632175 0 0 0
244 0 2 -1.264267 1.112244 7.426075 0 0 0
127 0 1 -0.309388 1.136326 6.329789 0 0 0
126 0 1 0.161834 1.966190 6.323475 0 0 0
125 0 1 0.326561 2.168902 7.287333 0 0 0
124 0 1 0.362299 2.198024 8.237095 0 0 0
394 0 2 -1.347435 -1.833832 9.505589 0 0 0
393 0 2 -1.336818 -1.589969 10.431321 0 0 0
365 0 2 -0.216119 -0.644216 9.482173 0 0 0
238 0 2 0.003645 -1.694998 7.848878 0 0 0
368 0 2 0.413525 -2.386137 10.187782 0 0 0
395 0 2 -0.980543 -1.973940 8.648621 0 0 0
362 0 2 -2.309141 0.158234 10.627808 0 0 0
361 0 2 -2.344167 0.244089 9.685494 0 0 0
364 0 2 -0.675973 0.179012 9.735048 0 0 0
363 0 2 -1.386774 0.329251 10.335764 0 0 0
79 0 1 2.184080 -0.738471 9.600921 0 0 0
80 0 1 1.725000 -1.433274 9.226522 0 0 0
81 0 1 0.795656 -1.055988 9.179164 0 0 0
121 0 1 -0.275769 2.349810 9.051216 0 0 0
120 0 1 -0.451580 1.544627 9.605696 0 0 0
119 0 1 -0.208275 2.044861 10.405106 0 0 0
122 0 1 0.610837 2.167612 9.340214 0 0 0
123 0 1 0.515280 1.400546 8.775271 0 0 0
85 0 1 1.922940 1.263969 10.829161 0 0 0
116 0 1 -1.409846 1.188355 10.922332 0 0 0
83 0 1 1.090026 -0.192415 10.913442 0 0 0
84 0 1 1.741308 0.473733 11.316177 0 0 0
82 0 1 1.000453 -0.639204 10.040272 0 0 0
367 0 2 0.248860 -1.979108 9.332598 0 0 0
369 0 2 1.034412 -1.677937 10.391676 0 0 0
370 0 2 1.563155 -2.116460 11.054677 0 0 0
392 0 2 -0.602888 -2.133810 10.899703 0 0 0
391 0 2 -0.358000 -1.646016 11.657412 0 0 0
390 0 2 -1.340364 -1.741530 11.596217 0 0 0
366 0 2 -0.401931 -1.469732 9.852785 0 0 0
115 0 1 -0.573462 0.800688 11.042234 0 0 0
114 0 1 -0.220216 -0.064124 10.850596 0 0 0
113 0 1 0.282608 -0.903876 10.981364 0 0 0
112 0 1 0.826235 -0.785810 11.823239 0 0 0
111 0 1 1.602321 -0.696677 12.401870 0 0 0
371 0 2 1.216295 -2.147109 11.926007 0 0 0
118 0 1 -1.126737 2.349965 10.515124 0 0 0
117 0 1 -1.506003 1.607759 9.956844 0 0 0
88 0 1 0.051279 1.696398 11.748287 0 0 0
87 0 1 0.733164 1.641778 11.054087 0 0 0
91 0 1 0.257298 -0.080003 12.558635 0 0 0
86 0 1 1.024549 0.802837 10.646047 0 0 0
388 0 2 -1.333204 -1.463590 13.103127 0 0 0
382 0 2 0.246648 -1.895583 14.679349 0 0 0
381 0 2 1.184214 -1.988825 14.640959 0 0 0
375 0 2 0.238307 -1.204789 13.592212 0 0 0
374 0 2 -0.196818 -1.197554 12.742607 0 0 0
389 0 2 -1.576216 -1.047105 12.255031 0 0 0
387 0 2 -2.141530 -1.545268 13.626553 0 0 0
93 0 1 -0.927835 0.887335 12.886990 0 0 0
96 0 1 -2.130200 0.947734 13.890062 0 0 0
110 0 1 2.231143 0.006902 12.478648 0 0 0
376 0 2 0.204679 -0.382251 14.089103 0 0 0
377 0 2 0.736355 0.430811 14.094376 0 0 0
101 0 1 -0.726884 2.190613 14.174086 0 0 0
372 0 2 0.884583 -1.859596 12.750624 0 0 0
373 0 2 -0.041909 -2.099157 12.515394 0 0 0
108 0 1 1.994365 1.074712 13.581179 0 0 0
109 0 1 2.099729 0.912565 12.635199 0 0 0
94 0 1 -1.568782 0.210904 12.544237 0 0 0
95 0 1 -1.616360 0.286517 13.565687 0 0 0
92 0 1 -0.035851 0.598736 13.219717 0 0 0
89 0 1 0.296804 0.819283 11.753903 0 0 0
100 0 1 -0.520871 1.276592 13.961056 0 0 0
103 0 1 0.798317 1.942758 15.055178 0 0 0
90 0 1 0.831671 0.730669 12.520962 0 0 0
386 0 2 -2.393852 -0.653060 13.645719 0 0 0
385 0 2 -1.835560 -0.700987 14.447802 0 0 0
383 0 2 -0.702893 -1.864981 14.839509 0 0 0
384 0 2 -1.081558 -1.273912 14.215800 0 0 0
380 0 2 1.959170 -1.604508 14.380120 0 0 0
98 0 1 -1.205018 1.204172 15.023057 0 0 0
97 0 1 -1.781363 1.681404 14.424949 0 0 0
378 0 2 1.528506 -0.165061 14.283438 0 0 0
379 0 2 1.891919 -0.899042 13.786178 0 0 0
99 0 1 -0.293169 1.523771 14.917741 0 0 0
104 0 1 1.082323 1.366091 14.361033 0 0 0
102 0 1 0.153438 2.396445 14.448590 0 0 0
105 0 1 1.807363 1.015084 14.833225 0 0 0
107 0 1 2.547565 0.355155 13.899415 0 0 0
106 0 1 2.455955 0.294728 14.882577 0 0 0

Velocities

316 0.267827 0.443169 -0.294556
298 -0.301931 -0.952477 -0.580851
297 -0.050706 -1.621623 -0.708288
315 -0.039142 0.756903 1.365721
314 -0.394153 0.320332 -0.336120
313 -0.587417 -0.094800 1.185212
299 0.188910 0.269520 1.771885
300 -1.284254 -0.823608 1.425185
304 0.462570 -0.370174 -0.604350
305 0.814301 1.139034 0.164952
311 0.561729 0.785475 1.074014
308 1.348198 -0.351542 -0.096470
307 -1.293492 0.113705 1.593024
312 1.789613 0.195202 -1.993003
306 0.777344 -0.197934 0.296028
318 1.785579 0.319351 1.312486
317 0.247699 1.426796 -0.111701
321 0.520624 0.419511 0.997813
293 -0.174750 -0.963277 -0.352797
296 -0.519947 0.780710 1.519918
295 0.988290 -1.464285 -0.076646
179 -0.348684 2.077321 -0.441424
319 -0.153323 -1.202534 -1.024364
180 0.021969 0.088751 -1.320044
320 0.698895 0.193590 1.587132
291 0.669182 0.149584 -1.045432
292 -0.534752 0.842532 2.084686
181 -1.579141 -0.752784 -0.495860
301 -1.136884 -0.041831 -0.534638
302 -0.681390 -2.156821 2.557322
303 -1.300768 1.311299 0.327311
177 0.452644 -1.956734 1.643824
178 0.469982 -0.391901 0.379525
176 -1.429853 0.847385 -1.888256
309 -1.574182 2.089924 -1.330255
310 0.169482 -1.739245 2.600383
168 -0.868498 -0.578218 -0.480907
323 -0.377030 0.423617 -1.213566
322 -0.113939 1.918692 0.855055
294 1.522913 0.584804 1.566148
169 0.432311 -0.735680 0.971931
171 0.488018 -0.292816 -0.231429
170 0.492039 0.609526 -0.490349
182 -1.028886 0.940984 -0.041402
289 0.709254 -1.049028 1.005226
183 -1.288040 -0.083891 -1.176239
284 0.031386 -0.081988 0.493474
290 -0.457435 1.425065 0.116331
288 1.467679 0.939028 -0.623728
285 0.774993 1.077071 0.655908
175 -0.099834 -0.742067 0.006845
174 -0.659739 0.598302 0.339099
172 0.439955 0.103697 -0.224093
173 -0.913041 0.083606 1.301411
281 -0.154721 0.672324 1.087982
282 1.465489 -1.328567 -0.958770
283 1.245744 0.324445 -2.028251
167 -0.650104 -0.376295 -0.250846
325 0.029142 -0.825772 -1.268967
326 -1.287213 -0.647033 1.220563
328 1.352529 -1.173079 -0.336387
329 -0.441549 -1.431456 0.832969
276 0.455611 0.279851 0.052610
166 0.968715 -1.003719 1.050387
274 -0.300885 -0.471189 -0.009725
275 0.197349 1.420068 0.096214
324 -0.045806 -0.848853 -1.480831
327 -0.115421 0.607641 -0.748665
184 -0.367216 -0.876053 -1.312921
186 -0.629871 0.674655 -2.310981
187 -2.466561 0.771341 0.443177
185 0.694575 0.321538 0.544615
287 -0.387399 -1.893497 -0.749735
286 0.385469 0.080615 -1.012216
277 -0.560462 -0.002881 -0.094886
280 -1.259627 0.062665 0.140193
279 -0.529841 0.694644 0.936987
278 1.847932 -0.017694 1.215982
188 0.785738 -0.945580 -1.210719
12 -1.809048 -1.412864 0.216409
13 0.458701 0.856294 -0.408636
330 0.301047 2.403973 1.507408
165 1.715672 -0.352289 0.484420
164 0.532044 -0.338354 1.242808
331 -0.237103 2.171078 -0.243221
273 -0.518503 -0.810030 0.564191
272 1.476985 0.181912 -1.127566
163 0.334518 0.201256 -0.108373
162 0.231725 0.289265 1.290718
161 0.213600 1.287904 -0.041893
29 0.548527 0.263800 -0.016464
30 -3.087937 0.202346 1.236982
31 0.764302 1.710288 0.532313
28 0.334332 -0.988473 0.618266
160 -0.184135 1.185869 -0.691409
271 -0.665423 -0.205810 0.699918
189 0.130331 -1.960468 0.497730
190 -0.266303 -0.782477 0.274305
191 0.474952 -0.073393 0.113203
159 0.583078 1.351519 0.422233
15 0.210168 -0.329894 -0.559652
11 0.213780 2.230029 0.021447
332 1.504477 -0.562294 0.228757
10 -0.102997 0.085523 0.498514
333 0.184149 -0.674181 1.574077
32 0.123735 -2.375741 1.221388
33 0.957888 1.458185 -0.418562
16 -0.298257 -1.047819 -1.446000
270 0.844413 -0.097191 -0.443836
14 -1.170299 -0.982563 -0.619457
17 -0.334422 1.910547 -0.019947
18 0.448994 -0.139957 -1.043036
25 -0.495822 0.940516 1.392759
23 -0.610558 -0.192415 0.367009
22 1.076036 0.468354 0.043106
27 1.652037 1.271717 1.169699
26 -1.601951 1.318959 1.520199
34 -0.881538 -0.197591 -0.340900
35 -1.131325 -2.171458 0.698235
269 0.829285 0.528732 1.342859
158 -0.187275 1.313833 -0.028491
193 -0.883192 -0.420373 -0.316816
192 1.906150 1.044781 1.793568
156 -0.191566 -0.376495 0.821474
157 -0.642028 0.116349 0.696816
7 -0.116350 0.714156 -1.140790
8 1.109789 -0.248279 -0.133620
6 1.031628 1.216594 0.194641
9 -0.400261 -1.445606 1.463871
335 0.522626 1.388733 -0.430171
334 -0.273569 -1.447532 0.668230
21 -0.270652 -0.034143 -1.845314
19 0.871240 -0.695483 -1.086679
20 0.832591 -0.529283 1.113224
24 -0.327953 0.198496 0.257342
153 -0.671940 -0.449369 1.404557
36 1.152607 -1.430403 -1.390251
38 0.176365 1.607463 0.133947
37 1.178010 -0.122695 1.337913
268 -0.778873 -0.067331 0.250863
267 -0.752628 -1.605903 -0.081390
155 -0.108812 -0.892995 -0.013787
154 0.480987 -1.383929 -0.669809
195 -1.105228 -2.064015 1.103708
194 -0.256426 -0.501306 -1.079964
196 -1.058780 0.593281 0.800565
197 -0.130890 0.085720 1.146156
336 -0.358449 0.905820 -2.077497
55 -0.646746 -0.576167 1.187812
54 0.428139 0.413026 0.866198
39 1.235197 1.312216 -0.394935
40 0.351424 -0.365853 -0.917620
5 2.538926 -0.573260 -0.897046
4 0.299684 -0.490522 0.405212
3 0.752568 1.760915 -0.764247
199 -0.040679 -0.017204 -1.045947
42 -0.550351 1.857461 -0.032629
198 -1.063992 0.647746 -0.948855
266 0.697279 1.278358 0.773066
264 -0.406529 -0.164558 -0.727726
265 -1.328244 -0.500066 1.168582
152 -0.433547 -0.158649 -0.384814
150 0.692393 -0.561422 -1.114618
151 1.397867 -1.180997 -0.380230
149 0.204080 1.100515 -0.207969
200 -1.297282 -1.968348 -0.759574
57 -0.079753 -0.646988 -0.298961
58 0.920476 -0.682438 0.288632
337 0.073464 1.487416 -1.143546
53 0.664468 0.224619 0.154649
52 1.383715 -0.170001 -1.006120
56 -0.070826 -1.826560 1.044355
339 -0.171551 0.809793 -0.542496
41 1.060648 0.468595 2.154250
338 -0.549446 0.130603 -0.800264
263 -0.817840 0.175440 -1.039006
262 1.045695 1.424351 -1.563659
261 -0.141283 1.527652 -0.110057
260 1.855918 0.009732 -0.549912
1 0.247178 0.674368 2.509546
2 1.226145 0.745955 -1.082922
50 -2.445288 1.140729 0.564067
51 1.170813 -0.328462 -0.388407
48 1.195626 -0.864658 0.397679
43 -1.022593 0.858877 -0.267067
44 -2.848923 0.988391 -1.271510
148 0.051910 -1.935908 0.970555
147 0.077327 0.987414 -0.661067
46 -0.138961 0.651949 0.248604
47 1.801309 0.083167 1.576004
45 0.180455 0.559987 -0.426672
59 -0.479408 1.491591 0.292743
60 -0.793831 1.881632 0.867402
341 0.617501 -0.507763 -0.104937
211 2.054966 -0.624393 1.858917
340 -1.216394 -0.521161 0.438677
342 1.270871 0.719257 1.167302
258 0.835629 0.688141 0.239531
257 -0.807824 0.897149 -0.110435
259 -0.272893 -0.599527 -1.312619
256 -0.984868 -0.323357 -0.613191
49 0.357029 0.198048 1.892308
144 0.070209 0.023175 -0.119624
140 0.018405 -0.650991 -0.330228
141 -0.516566 1.574357 0.634608
139 0.825027 0.684976 -1.220124
142 0.815327 1.080571 -2.122735
343 -0.230745 -0.712462 1.482169
146 -1.471174 0.198047 -0.404168
145 -1.551064 0.310018 1.099770
213 0.320867 1.320990 -0.127350
212 1.971566 0.279990 -0.669981
210 0.625691 -1.054544 -0.111272
208 0.757836 1.922326 1.822660
209 0.142313 -0.730435 -1.060141
217 -1.259493 -0.031343 -0.537171
214 -0.473102 0.003675 -0.084754
215 0.044461 0.316679 -0.213337
216 0.019488 -0.298451 -0.954228
254 0.471118 -0.318177 -0.898112
63 -0.024679 -0.869714 -0.372907
255 1.167301 0.148580 -0.890150
61 0.211060 0.339571 -0.630842
344 -1.578827 -0.320239 0.542170
62 0.495317 -0.397933 -0.675804
345 1.257848 0.067915 -0.917189
138 0.583304 -0.967358 0.691763
137 -0.135157 -0.018539 -0.482948
64 1.550615 1.784549 0.447156
135 -0.377347 1.451929 1.329371
65 -0.968846 1.550599 -0.103329
66 1.339718 -0.425165 -1.128336
143 -1.681125 0.002763 2.884681
205 -0.921073 -0.279679 -1.119208
206 -0.115012 0.691091 -0.481885
207 0.280765 0.140111 0.307379
218 1.587324 0.919576 0.098624
348 1.455454 -0.829174 0.592361
228 -0.117268 1.438522 0.341790
219 -1.683449 1.148228 0.101360
347 -0.787248 0.057456 1.349245
252 0.199865 -2.132138 1.767108
253 0.264556 1.404183 0.365519
251 1.580620 -0.059999 -0.252088
346 0.761195 1.283956 -0.231294
134 0.194724 -0.597585 0.493096
133 -0.098622 0.304519 0.225700
227 -0.431777 -0.085319 -0.623512
136 -0.703496 0.437985 -1.238043
220 0.281276 0.261715 0.902563
221 -0.993021 -2.246950 0.469248
222 -0.265789 -1.475159 1.527435
223 0.652680 0.067593 1.003141
67 1.960672 0.703903 0.716303
68 1.775703 -0.970244 -0.260400
204 1.158335 0.400230 1.208383
349 -0.350677 -0.079211 1.606665
230 -0.377577 1.522501 -0.454425
229 -0.035059 0.146146 0.026825
400 -0.674844 0.442994 0.759175
231 -0.467758 -0.169992 0.087755
203 1.002705 0.652281 0.635319
202 0.268081 0.761428 -1.976241
201 1.041538 0.234398 -0.436445
250 -1.462796 -0.544795 1.276374
226 0.715874 0.322801 0.299790
350 -0.590327 -1.247265 1.077691
351 -0.920818 0.614692 -0.269783
224 -1.113087 0.911369 -0.164077
225 0.632673 -0.753106 0.860993
249 0.593370 -1.697864 2.040624
130 0.686071 -0.871437 -1.703241
248 -0.925730 1.623792 -0.929139
132 -1.390979 -0.596387 -0.353517
131 -0.499646 -1.162085 0.642456
69 0.865013 -0.412850 -0.217641
70 0.723375 -0.609185 -1.411518
71 0.760405 0.344066 0.273332
398 0.542720 -1.004876 0.112489
399 -1.476831 -1.191294 0.122887
232 2.603928 0.494608 0.510610
233 0.800729 0.368244 0.460464
357 0.871787 1.980748 -0.998234
355 0.401160 0.457975 -1.101584
356 -0.370016 1.621827 -0.833287
358 -1.412784 0.220153 0.009548
352 -0.414701 -0.932652 0.398186
353 0.160261 1.678145 0.155992
354 -0.038311 -0.694917 -1.860162
74 -0.824071 -0.194836 0.295868
75 -1.176606 -0.578912 0.898958
247 -0.741296 -0.515812 -1.623634
129 -0.908868 -0.037521 0.597886
246 -1.624569 -1.245436 -1.237003
128 1.011893 2.199821 0.130563
245 -1.107984 -0.360852 1.335796
72 -0.440430 0.101658 0.520528
73 -0.981132 0.147188 0.303410
396 0.561619 -1.858473 0.587556
397 -0.048099 0.933233 0.408104
234 0.493468 0.518521 -1.939622
236 -0.498521 1.060844 0.957226
237 -0.146065 0.510360 1.293735
235 1.862731 0.252924 -1.450122
359 -0.842228 -0.214052 -0.851606
360 0.584654 1.189771 -0.792355
241 0.870181 -1.203640 0.717043
243 -0.527687 -0.668720 1.237255
239 0.785111 0.604822 -0.213781
240 0.677787 -0.315924 2.227151
242 -0.348308 1.367199 1.146441
76 0.139688 -0.068498 -0.701295
77 1.439267 1.322376 0.541210
78 0.237480 -1.618805 1.538999
244 -0.682030 0.852043 -0.225721
127 0.661195 1.134528 0.131741
126 -1.235922 0.533361 1.524363
125 -1.670031 -1.108043 -0.112665
124 -0.611446 1.499382 0.844837
394 -0.199709 -0.635629 0.079638
393 -0.787889 1.605843 1.338510
365 0.345874 -0.964998 0.907961
238 0.608764 1.884486 -0.059423
368 -0.314180 -0.595420 -0.193398
395 -0.251244 -0.272049 0.104388
362 0.121471 -0.286312 -1.339298
361 -1.757144 -0.844228 0.152719
364 0.354680 -0.370276 -0.589129
363 1.117793 -0.915931 0.191575
79 0.931789 0.448292 1.710391
80 1.664736 0.143440 -0.294479
81 -1.131254 -1.345409 0.054771
121 -1.418374 0.019166 0.133931
120 -0.049180 -0.966349 0.456060
119 0.403950 0.262530 1.345052
122 -0.353134 -0.227682 0.097537
123 -1.889092 -1.082837 -1.642809
85 1.756375 0.645523 -0.249994
116 0.381835 0.806266 0.222169
83 0.784083 -0.112234 -0.537165
84 -0.627502 0.024281 -2.128955
82 1.622845 0.425297 1.484643
367 -0.588572 0.925090 -0.889308
369 -0.793087 1.169294 -1.414991
370 -1.293886 -0.403018 -0.719932
392 -0.340711 -0.368194 0.106244
391 0.932911 0.405410 -0.042156
390 -1.331942 -1.213336 -1.059999
366 -0.578871 -0.588724 -1.251456
115 0.930138 0.327372 -0.383275
114 1.480473 -0.971143 -1.548733
113 -0.616163 0.028637 0.826546
112 -0.165735 -1.043984 -1.270995
111 1.480192 1.117434 -0.179383
371 0.609326 -0.357028 -0.054030
118 -0.967384 0.191649 0.954321
117 -0.259396 0.001025 0.608164
88 0.319786 0.419985 0.352527
87 0.604564 1.574500 -0.475998
91 0.048371 -0.345777 -0.865305
86 1.211115 0.038282 -0.176401
388 0.355614 1.748347 -0.073919
382 -1.304388 -0.710418 -1.291442
381 0.388914 -1.221513 -0.140132
375 -2.018777 1.002780 -2.316831
374 -1.416339 0.672675 -1.096969
389 -0.350280 0.134568 -1.409492
387 0.578895 -2.170557 0.061890
93 -0.580984 0.779737 -1.607034
96 -0.007414 0.437806 -1.084095
110 0.025764 0.907982 -1.629175
376 -0.625933 1.262684 0.308076
377 -1.109374 0.194040 -1.032303
101 -1.911590 0.907490 -0.103017
372 0.125539 1.431944 1.029539
373 0.517260 1.657521 0.584250
108 -0.349581 -0.829770 0.778352
109 -0.770610 -1.055878 -0.848643
94 0.665874 -0.308671 -2.256715
95 0.926707 -1.295504 0.205507
92 1.326069 -1.221431 1.037106
89 0.672986 -1.224851 -0.357562
100 0.782777 -0.072209 -1.385180
103 -0.826633 0.448824 1.009480
90 -1.131447 -1.219381 -0.706564
386 -1.781941 -1.489689 0.484821
385 -0.294849 -0.241348 -0.344090
383 0.855965 0.757091 0.237325
384 -2.177650 -1.751530 1.520525
380 0.079835 1.452043 -0.956139
98 0.993798 -0.888254 0.938080
97 -0.384132 0.228237 0.281232
378 1.662770 -0.573784 0.874613
379 2.256105 -0.498862 0.699952
99 0.068698 -0.449556 0.367285
104 -0.829376 0.636226 1.540515
102 0.613313 0.585555 -0.407958
105 -0.153100 -0.691462 1.478856
107 -0.083160 0.003915 -1.743973
106 0.928389 -1.092473 -0.346610

Bonds

1 1 316 317
2 1 298 299
3 1 297 298
4 1 315 316
5 1 314 315
6 1 313 314
7 1 299 300
8 1 300 301
9 1 304 305
10 1 305 306
11 1 311 312
12 1 308 309
13 1 307 308
14 1 312 313
15 1 306 307
16 1 318 319
17 1 317 318
18 1 321 322
19 1 293 294
20 1 296 297
21 1 295 296
22 1 179 180
23 1 319 320
24 1 180 181
25 1 320 321
26 1 291 292
27 1 292 293
28 1 181 182
29 1 301 302
30 1 302 303
31 1 303 304
32 1 177 178
33 1 178 179
34 1 176 177
35 1 309 310
36 1 310 311
37 1 168 169
38 1 323 324
39 1 322 323
40 1 294 295
41 1 169 170
42 1 171 172
43 1 170 171
44 1 182 183
45 1 289 290
46 1 183 184
47 1 284 285
48 1 290 291
49 1 288 289
50 1 285 286
51 1 175 176
52 1 174 175
53 1 172 173
54 1 173 174
55 1 281 282
56 1 282 283
57 1 283 284
58 1 167 168
59 1 325 326
60 1 326 327
61 1 328 329
62 1 329 330
63 1 276 277
64 1 166 167
65 1 274 275
66 1 275 276
67 1 324 325
68 1 327 328
69 1 184 185
70 1 186 187
71 1 187 188
72 1 185 186
73 1 287 288
74 1 286 287
75 1 277 278
76 1 280 281
77 1 279 280
78 1 278 279
79 1 188 189
80 1 12 13
81 1 13 14
82 1 330 331
83 1 165 166
84 1 164 165
85 1 331 332
86 1 273 274
87 1 272 273
88 1 163 164
89 1 162 163
90 1 161 162
91 1 29 30
92 1 30 31
93 1 31 32
94 1 28 29
95 1 160 161
96 1 271 272
97 1 189 190
98 1 190 191
99 1 191 192
100 1 159 160
101 1 15 16
102 1 11 12
103 1 332 333
104 1 10 11
105 1 333 334
106 1 32 33
107 1 33 34
108 1 16 17
109 1 270 271
110 1 14 15
111 1 17 18
112 1 18 19
113 1 25 26
114 1 23 24
115 1 22 23
116 1 27 28
117 1 26 27
118 1 34 35
119 1 35 36
120 1 269 270
121 1 158 159
122 1 193 194
123 1 192 193
124 1 156 157
125 1 157 158
126 1 7 8
127 1 8 9
128 1 6 7
129 1 9 10
130 1 335 336
131 1 334 335
132 1 21 22
133 1 19 20
134 1 20 21
135 1 24 25
136 1 153 154
137 1 36 37
138 1 38 39
139 1 37 38
140 1 268 269
141 1 267 268
142 1 155 156
143 1 154 155
144 1 195 196
145 1 194 195
146 1 196 197
147 1 197 198
148 1 336 337
149 1 55 56
150 1 54 55
151 1 39 40
152 1 40 41
153 1 5 6
154 1 4 5
155 1 3 4
156 1 199 200
157 1 42 43
158 1 198 199
159 1 266 267
160 1 264 265
161 1 265 266
162 1 152 153
163 1 150 151
164 1 151 152
165 1 151 200
166 1 149 150
167 1 200 1
168 1 57 58
169 1 58 59
170 1 337 338
171 1 53 54
172 1 52 53
173 1 56 57
174 1 339 340
175 1 41 42
176 1 338 339
177 1 263 264
178 1 262 263
179 1 261 262
180 1 260 261
181 1 1 2
182 1 1 50
183 1 2 3
184 1 50 51
185 1 51 52
186 1 48 49
187 1 43 44
188 1 44 45
189 1 148 149
190 1 147 148
191 1 46 47
192 1 47 48
193 1 45 46
194 1 59 60
195 1 60 61
196 1 341 342
197 1 211 212
198 1 340 341
199 1 342 343
200 1 258 259
201 1 257 258
202 1 259 260
203 1 256 257
204 1 49 50
205 1 144 145
206 1 140 141
207 1 141 142
208 1 139 140
209 1 142 143
210 1 343 344
211 1 146 147
212 1 145 146
213 1 213 214
214 1 212 213
215 1 210 211
216 1 208 209
217 1 209 210
218 1 217 218
219 1 214 215
220 1 215 216
221 1 216 217
222 1 254 255
223 1 63 64
224 1 255 256
225 1 61 62
226 1 344 345
227 1 62 63
228 1 345 346
229 1 138 139
230 1 137 138
231 1 64 65
232 1 135 136
233 1 65 66
234 1 66 67
235 1 143 144
236 1 205 206
237 1 206 207
238 1 207 208
239 1 218 219
240 1 348 349
241 1 228 229
242 1 219 220
243 1 347 348
244 1 252 253
245 1 253 254
246 1 251 252
247 1 346 347
248 1 134 135
249 1 133 134
250 1 227 228
251 1 136 137
252 1 220 221
253 1 221 222
254 1 222 223
255 1 223 224
256 1 67 68
257 1 68 69
258 1 204 205
259 1 349 350
260 1 230 231
261 1 229 230
262 1 400 201
263 1 231 232
264 1 203 204
265 1 202 203
266 1 201 202
267 1 201 250
268 1 250 251
269 1 226 227
270 1 350 351
271 1 351 352
272 1 351 400
273 1 224 225
274 1 225 226
275 1 249 250
276 1 130 131
277 1 248 249
278 1 132 133
279 1 131 132
280 1 69 70
281 1 70 71
282 1 71 72
283 1 398 399
284 1 399 400
285 1 232 233
286 1 233 234
287 1 357 358
288 1 355 356
289 1 356 357
290 1 358 359
291 1 352 353
292 1 353 354
293 1 354 355
294 1 74 75
295 1 75 76
296 1 247 248
297 1 129 130
298 1 246 247
299 1 128 129
300 1 245 246
301 1 72 73
302 1 73 74
303 1 396 397
304 1 397 398
305 1 234 235
306 1 236 237
307 1 237 238
308 1 235 236
309 1 359 360
310 1 360 361
311 1 241 242
312 1 243 244
313 1 239 240
314 1 240 241
315 1 242 243
316 1 76 77
317 1 77 78
318 1 78 79
319 1 244 245
320 1 127 128
321 1 126 127
322 1 125 126
323 1 124 125
324 1 394 395
325 1 393 394
326 1 365 366
327 1 238 239
328 1 368 369
329 1 395 396
330 1 362 363
331 1 361 362
332 1 364 365
333 1 363 364
334 1 79 80
335 1 80 81
336 1 81 82
337 1 121 122
338 1 120 121
339 1 119 120
340 1 122 123
341 1 123 124
342 1 85 86
343 1 116 117
344 1 83 84
345 1 84 85
346 1 82 83
347 1 367 368
348 1 369 370
349 1 370 371
350 1 392 393
351 1 391 392
352 1 390 391
353 1 366 367
354 1 115 116
355 1 114 115
356 1 113 114
357 1 112 113
358 1 111 112
359 1 371 372
360 1 118 119
361 1 117 118
362 1 88 89
363 1 87 88
364 1 91 92
365 1 86 87
366 1 388 389
367 1 382 383
368 1 381 382
369 1 375 376
370 1 374 375
371 1 389 390
372 1 387 388
373 1 93 94
374 1 96 97
375 1 110 111
376 1 376 377
377 1 377 378
378 1 101 102
379 1 372 373
380 1 373 374
381 1 108 109
382 1 109 110
383 1 94 95
384 1 95 96
385 1 92 93
386 1 89 90
387 1 100 101
388 1 103 104
389 1 90 91
390 1 386 387
391 1 385 386
392 1 383 384
393 1 384 385
394 1 380 381
395 1 98 99
396 1 97 98
397 1 378 379
398 1 379 380
399 1 99 100
400 1 104 105
401 1 102 103
402 1 105 106
403 1 107 108
404 1 106 107
