# input data file for 2 Arc0 polymer(s) with 200 monomers
# Offset angles: 0.00 0.00

400 atoms
2 atom types
404 bonds
1 bond types

-37.0 37.0 xlo xhi 
-37.0 37.0 ylo yhi 
-37.0 37.0 zlo zhi 

Atoms

1 0 1 0.000000 -12.333333 31.830989 
2 0 1 0.999836 -12.333333 31.815282 
3 0 1 1.998684 -12.333333 31.768177 
4 0 1 2.995561 -12.333333 31.689722 
5 0 1 3.989481 -12.333333 31.579992 
6 0 1 4.979464 -12.333333 31.439096 
7 0 1 5.964532 -12.333333 31.267174 
8 0 1 6.943715 -12.333333 31.064395 
9 0 1 7.916045 -12.333333 30.830960 
10 0 1 8.880563 -12.333333 30.567097 
11 0 1 9.836316 -12.333333 30.273069 
12 0 1 10.782363 -12.333333 29.949165 
13 0 1 11.717768 -12.333333 29.595705 
14 0 1 12.641610 -12.333333 29.213037 
15 0 1 13.552976 -12.333333 28.801540 
16 0 1 14.450966 -12.333333 28.361619 
17 0 1 15.334696 -12.333333 27.893708 
18 0 1 16.203292 -12.333333 27.398270 
19 0 1 17.055897 -12.333333 26.875793 
20 0 1 17.891670 -12.333333 26.326792 
21 0 1 18.709786 -12.333333 25.751811 
22 0 1 19.509437 -12.333333 25.151415 
23 0 1 20.289836 -12.333333 24.526198 
24 0 1 21.050210 -12.333333 23.876777 
25 0 1 21.789811 -12.333333 23.203792 
26 0 1 22.507908 -12.333333 22.507908 
27 0 1 23.203792 -12.333333 21.789811 
28 0 1 23.876777 -12.333333 21.050210 
29 0 1 24.526198 -12.333333 20.289836 
30 0 1 25.151415 -12.333333 19.509437 
31 0 1 25.751811 -12.333333 18.709786 
32 0 1 26.326792 -12.333333 17.891670 
33 0 1 26.875793 -12.333333 17.055897 
34 0 1 27.398270 -12.333333 16.203292 
35 0 1 27.893708 -12.333333 15.334696 
36 0 1 28.361619 -12.333333 14.450966 
37 0 1 28.801540 -12.333333 13.552976 
38 0 1 29.213037 -12.333333 12.641610 
39 0 1 29.595705 -12.333333 11.717768 
40 0 1 29.949165 -12.333333 10.782363 
41 0 1 30.273069 -12.333333 9.836316 
42 0 1 30.567097 -12.333333 8.880563 
43 0 1 30.830960 -12.333333 7.916045 
44 0 1 31.064395 -12.333333 6.943715 
45 0 1 31.267174 -12.333333 5.964532 
46 0 1 31.439096 -12.333333 4.979464 
47 0 1 31.579992 -12.333333 3.989481 
48 0 1 31.689722 -12.333333 2.995561 
49 0 1 31.768177 -12.333333 1.998684 
50 0 1 31.815282 -12.333333 0.999836 
51 0 1 31.830989 -12.333333 0.000000 
52 0 1 31.815282 -12.333333 -0.999836 
53 0 1 31.768177 -12.333333 -1.998684 
54 0 1 31.689722 -12.333333 -2.995561 
55 0 1 31.579992 -12.333333 -3.989481 
56 0 1 31.439096 -12.333333 -4.979464 
57 0 1 31.267174 -12.333333 -5.964532 
58 0 1 31.064395 -12.333333 -6.943715 
59 0 1 30.830960 -12.333333 -7.916045 
60 0 1 30.567097 -12.333333 -8.880563 
61 0 1 30.273069 -12.333333 -9.836316 
62 0 1 29.949165 -12.333333 -10.782363 
63 0 1 29.595705 -12.333333 -11.717768 
64 0 1 29.213037 -12.333333 -12.641610 
65 0 1 28.801540 -12.333333 -13.552976 
66 0 1 28.361619 -12.333333 -14.450966 
67 0 1 27.893708 -12.333333 -15.334696 
68 0 1 27.398270 -12.333333 -16.203292 
69 0 1 26.875793 -12.333333 -17.055897 
70 0 1 26.326792 -12.333333 -17.891670 
71 0 1 25.751811 -12.333333 -18.709786 
72 0 1 25.151415 -12.333333 -19.509437 
73 0 1 24.526198 -12.333333 -20.289836 
74 0 1 23.876777 -12.333333 -21.050210 
75 0 1 23.203792 -12.333333 -21.789811 
76 0 1 22.507908 -12.333333 -22.507908 
77 0 1 21.789811 -12.333333 -23.203792 
78 0 1 21.050210 -12.333333 -23.876777 
79 0 1 20.289836 -12.333333 -24.526198 
80 0 1 19.509437 -12.333333 -25.151415 
81 0 1 18.709786 -12.333333 -25.751811 
82 0 1 17.891670 -12.333333 -26.326792 
83 0 1 17.055897 -12.333333 -26.875793 
84 0 1 16.203292 -12.333333 -27.398270 
85 0 1 15.334696 -12.333333 -27.893708 
86 0 1 14.450966 -12.333333 -28.361619 
87 0 1 13.552976 -12.333333 -28.801540 
88 0 1 12.641610 -12.333333 -29.213037 
89 0 1 11.717768 -12.333333 -29.595705 
90 0 1 10.782363 -12.333333 -29.949165 
91 0 1 9.836316 -12.333333 -30.273069 
92 0 1 8.880563 -12.333333 -30.567097 
93 0 1 7.916045 -12.333333 -30.830960 
94 0 1 6.943715 -12.333333 -31.064395 
95 0 1 5.964532 -12.333333 -31.267174 
96 0 1 4.979464 -12.333333 -31.439096 
97 0 1 3.989481 -12.333333 -31.579992 
98 0 1 2.995561 -12.333333 -31.689722 
99 0 1 1.998684 -12.333333 -31.768177 
100 0 1 0.999836 -12.333333 -31.815282 
101 0 1 0.000000 -12.333333 -31.830989 
102 0 1 -0.999836 -12.333333 -31.815282 
103 0 1 -1.998684 -12.333333 -31.768177 
104 0 1 -2.995561 -12.333333 -31.689722 
105 0 1 -3.989481 -12.333333 -31.579992 
106 0 1 -4.979464 -12.333333 -31.439096 
107 0 1 -5.964532 -12.333333 -31.267174 
108 0 1 -6.943715 -12.333333 -31.064395 
109 0 1 -7.916045 -12.333333 -30.830960 
110 0 1 -8.880563 -12.333333 -30.567097 
111 0 1 -9.836316 -12.333333 -30.273069 
112 0 1 -10.782363 -12.333333 -29.949165 
113 0 1 -11.717768 -12.333333 -29.595705 
114 0 1 -12.641610 -12.333333 -29.213037 
115 0 1 -13.552976 -12.333333 -28.801540 
116 0 1 -14.450966 -12.333333 -28.361619 
117 0 1 -15.334696 -12.333333 -27.893708 
118 0 1 -16.203292 -12.333333 -27.398270 
119 0 1 -17.055897 -12.333333 -26.875793 
120 0 1 -17.891670 -12.333333 -26.326792 
121 0 1 -18.709786 -12.333333 -25.751811 
122 0 1 -19.509437 -12.333333 -25.151415 
123 0 1 -20.289836 -12.333333 -24.526198 
124 0 1 -21.050210 -12.333333 -23.876777 
125 0 1 -21.789811 -12.333333 -23.203792 
126 0 1 -22.507908 -12.333333 -22.507908 
127 0 1 -23.203792 -12.333333 -21.789811 
128 0 1 -23.876777 -12.333333 -21.050210 
129 0 1 -24.526198 -12.333333 -20.289836 
130 0 1 -25.151415 -12.333333 -19.509437 
131 0 1 -25.751811 -12.333333 -18.709786 
132 0 1 -26.326792 -12.333333 -17.891670 
133 0 1 -26.875793 -12.333333 -17.055897 
134 0 1 -27.398270 -12.333333 -16.203292 
135 0 1 -27.893708 -12.333333 -15.334696 
136 0 1 -28.361619 -12.333333 -14.450966 
137 0 1 -28.801540 -12.333333 -13.552976 
138 0 1 -29.213037 -12.333333 -12.641610 
139 0 1 -29.595705 -12.333333 -11.717768 
140 0 1 -29.949165 -12.333333 -10.782363 
141 0 1 -30.273069 -12.333333 -9.836316 
142 0 1 -30.567097 -12.333333 -8.880563 
143 0 1 -30.830960 -12.333333 -7.916045 
144 0 1 -31.064395 -12.333333 -6.943715 
145 0 1 -31.267174 -12.333333 -5.964532 
146 0 1 -31.439096 -12.333333 -4.979464 
147 0 1 -31.579992 -12.333333 -3.989481 
148 0 1 -31.689722 -12.333333 -2.995561 
149 0 1 -31.768177 -12.333333 -1.998684 
150 0 1 -31.815282 -12.333333 -0.999836 
151 0 1 -31.830989 -12.333333 -0.000000 
152 0 1 -31.815282 -12.333333 0.999836 
153 0 1 -31.768177 -12.333333 1.998684 
154 0 1 -31.689722 -12.333333 2.995561 
155 0 1 -31.579992 -12.333333 3.989481 
156 0 1 -31.439096 -12.333333 4.979464 
157 0 1 -31.267174 -12.333333 5.964532 
158 0 1 -31.064395 -12.333333 6.943715 
159 0 1 -30.830960 -12.333333 7.916045 
160 0 1 -30.567097 -12.333333 8.880563 
161 0 1 -30.273069 -12.333333 9.836316 
162 0 1 -29.949165 -12.333333 10.782363 
163 0 1 -29.595705 -12.333333 11.717768 
164 0 1 -29.213037 -12.333333 12.641610 
165 0 1 -28.801540 -12.333333 13.552976 
166 0 1 -28.361619 -12.333333 14.450966 
167 0 1 -27.893708 -12.333333 15.334696 
168 0 1 -27.398270 -12.333333 16.203292 
169 0 1 -26.875793 -12.333333 17.055897 
170 0 1 -26.326792 -12.333333 17.891670 
171 0 1 -25.751811 -12.333333 18.709786 
172 0 1 -25.151415 -12.333333 19.509437 
173 0 1 -24.526198 -12.333333 20.289836 
174 0 1 -23.876777 -12.333333 21.050210 
175 0 1 -23.203792 -12.333333 21.789811 
176 0 1 -22.507908 -12.333333 22.507908 
177 0 1 -21.789811 -12.333333 23.203792 
178 0 1 -21.050210 -12.333333 23.876777 
179 0 1 -20.289836 -12.333333 24.526198 
180 0 1 -19.509437 -12.333333 25.151415 
181 0 1 -18.709786 -12.333333 25.751811 
182 0 1 -17.891670 -12.333333 26.326792 
183 0 1 -17.055897 -12.333333 26.875793 
184 0 1 -16.203292 -12.333333 27.398270 
185 0 1 -15.334696 -12.333333 27.893708 
186 0 1 -14.450966 -12.333333 28.361619 
187 0 1 -13.552976 -12.333333 28.801540 
188 0 1 -12.641610 -12.333333 29.213037 
189 0 1 -11.717768 -12.333333 29.595705 
190 0 1 -10.782363 -12.333333 29.949165 
191 0 1 -9.836316 -12.333333 30.273069 
192 0 1 -8.880563 -12.333333 30.567097 
193 0 1 -7.916045 -12.333333 30.830960 
194 0 1 -6.943715 -12.333333 31.064395 
195 0 1 -5.964532 -12.333333 31.267174 
196 0 1 -4.979464 -12.333333 31.439096 
197 0 1 -3.989481 -12.333333 31.579992 
198 0 1 -2.995561 -12.333333 31.689722 
199 0 1 -1.998684 -12.333333 31.768177 
200 0 1 -0.999836 -12.333333 31.815282 
201 0 2 0.000000 12.333333 31.830989 
202 0 2 0.999836 12.333333 31.815282 
203 0 2 1.998684 12.333333 31.768177 
204 0 2 2.995561 12.333333 31.689722 
205 0 2 3.989481 12.333333 31.579992 
206 0 2 4.979464 12.333333 31.439096 
207 0 2 5.964532 12.333333 31.267174 
208 0 2 6.943715 12.333333 31.064395 
209 0 2 7.916045 12.333333 30.830960 
210 0 2 8.880563 12.333333 30.567097 
211 0 2 9.836316 12.333333 30.273069 
212 0 2 10.782363 12.333333 29.949165 
213 0 2 11.717768 12.333333 29.595705 
214 0 2 12.641610 12.333333 29.213037 
215 0 2 13.552976 12.333333 28.801540 
216 0 2 14.450966 12.333333 28.361619 
217 0 2 15.334696 12.333333 27.893708 
218 0 2 16.203292 12.333333 27.398270 
219 0 2 17.055897 12.333333 26.875793 
220 0 2 17.891670 12.333333 26.326792 
221 0 2 18.709786 12.333333 25.751811 
222 0 2 19.509437 12.333333 25.151415 
223 0 2 20.289836 12.333333 24.526198 
224 0 2 21.050210 12.333333 23.876777 
225 0 2 21.789811 12.333333 23.203792 
226 0 2 22.507908 12.333333 22.507908 
227 0 2 23.203792 12.333333 21.789811 
228 0 2 23.876777 12.333333 21.050210 
229 0 2 24.526198 12.333333 20.289836 
230 0 2 25.151415 12.333333 19.509437 
231 0 2 25.751811 12.333333 18.709786 
232 0 2 26.326792 12.333333 17.891670 
233 0 2 26.875793 12.333333 17.055897 
234 0 2 27.398270 12.333333 16.203292 
235 0 2 27.893708 12.333333 15.334696 
236 0 2 28.361619 12.333333 14.450966 
237 0 2 28.801540 12.333333 13.552976 
238 0 2 29.213037 12.333333 12.641610 
239 0 2 29.595705 12.333333 11.717768 
240 0 2 29.949165 12.333333 10.782363 
241 0 2 30.273069 12.333333 9.836316 
242 0 2 30.567097 12.333333 8.880563 
243 0 2 30.830960 12.333333 7.916045 
244 0 2 31.064395 12.333333 6.943715 
245 0 2 31.267174 12.333333 5.964532 
246 0 2 31.439096 12.333333 4.979464 
247 0 2 31.579992 12.333333 3.989481 
248 0 2 31.689722 12.333333 2.995561 
249 0 2 31.768177 12.333333 1.998684 
250 0 2 31.815282 12.333333 0.999836 
251 0 2 31.830989 12.333333 0.000000 
252 0 2 31.815282 12.333333 -0.999836 
253 0 2 31.768177 12.333333 -1.998684 
254 0 2 31.689722 12.333333 -2.995561 
255 0 2 31.579992 12.333333 -3.989481 
256 0 2 31.439096 12.333333 -4.979464 
257 0 2 31.267174 12.333333 -5.964532 
258 0 2 31.064395 12.333333 -6.943715 
259 0 2 30.830960 12.333333 -7.916045 
260 0 2 30.567097 12.333333 -8.880563 
261 0 2 30.273069 12.333333 -9.836316 
262 0 2 29.949165 12.333333 -10.782363 
263 0 2 29.595705 12.333333 -11.717768 
264 0 2 29.213037 12.333333 -12.641610 
265 0 2 28.801540 12.333333 -13.552976 
266 0 2 28.361619 12.333333 -14.450966 
267 0 2 27.893708 12.333333 -15.334696 
268 0 2 27.398270 12.333333 -16.203292 
269 0 2 26.875793 12.333333 -17.055897 
270 0 2 26.326792 12.333333 -17.891670 
271 0 2 25.751811 12.333333 -18.709786 
272 0 2 25.151415 12.333333 -19.509437 
273 0 2 24.526198 12.333333 -20.289836 
274 0 2 23.876777 12.333333 -21.050210 
275 0 2 23.203792 12.333333 -21.789811 
276 0 2 22.507908 12.333333 -22.507908 
277 0 2 21.789811 12.333333 -23.203792 
278 0 2 21.050210 12.333333 -23.876777 
279 0 2 20.289836 12.333333 -24.526198 
280 0 2 19.509437 12.333333 -25.151415 
281 0 2 18.709786 12.333333 -25.751811 
282 0 2 17.891670 12.333333 -26.326792 
283 0 2 17.055897 12.333333 -26.875793 
284 0 2 16.203292 12.333333 -27.398270 
285 0 2 15.334696 12.333333 -27.893708 
286 0 2 14.450966 12.333333 -28.361619 
287 0 2 13.552976 12.333333 -28.801540 
288 0 2 12.641610 12.333333 -29.213037 
289 0 2 11.717768 12.333333 -29.595705 
290 0 2 10.782363 12.333333 -29.949165 
291 0 2 9.836316 12.333333 -30.273069 
292 0 2 8.880563 12.333333 -30.567097 
293 0 2 7.916045 12.333333 -30.830960 
294 0 2 6.943715 12.333333 -31.064395 
295 0 2 5.964532 12.333333 -31.267174 
296 0 2 4.979464 12.333333 -31.439096 
297 0 2 3.989481 12.333333 -31.579992 
298 0 2 2.995561 12.333333 -31.689722 
299 0 2 1.998684 12.333333 -31.768177 
300 0 2 0.999836 12.333333 -31.815282 
301 0 2 0.000000 12.333333 -31.830989 
302 0 2 -0.999836 12.333333 -31.815282 
303 0 2 -1.998684 12.333333 -31.768177 
304 0 2 -2.995561 12.333333 -31.689722 
305 0 2 -3.989481 12.333333 -31.579992 
306 0 2 -4.979464 12.333333 -31.439096 
307 0 2 -5.964532 12.333333 -31.267174 
308 0 2 -6.943715 12.333333 -31.064395 
309 0 2 -7.916045 12.333333 -30.830960 
310 0 2 -8.880563 12.333333 -30.567097 
311 0 2 -9.836316 12.333333 -30.273069 
312 0 2 -10.782363 12.333333 -29.949165 
313 0 2 -11.717768 12.333333 -29.595705 
314 0 2 -12.641610 12.333333 -29.213037 
315 0 2 -13.552976 12.333333 -28.801540 
316 0 2 -14.450966 12.333333 -28.361619 
317 0 2 -15.334696 12.333333 -27.893708 
318 0 2 -16.203292 12.333333 -27.398270 
319 0 2 -17.055897 12.333333 -26.875793 
320 0 2 -17.891670 12.333333 -26.326792 
321 0 2 -18.709786 12.333333 -25.751811 
322 0 2 -19.509437 12.333333 -25.151415 
323 0 2 -20.289836 12.333333 -24.526198 
324 0 2 -21.050210 12.333333 -23.876777 
325 0 2 -21.789811 12.333333 -23.203792 
326 0 2 -22.507908 12.333333 -22.507908 
327 0 2 -23.203792 12.333333 -21.789811 
328 0 2 -23.876777 12.333333 -21.050210 
329 0 2 -24.526198 12.333333 -20.289836 
330 0 2 -25.151415 12.333333 -19.509437 
331 0 2 -25.751811 12.333333 -18.709786 
332 0 2 -26.326792 12.333333 -17.891670 
333 0 2 -26.875793 12.333333 -17.055897 
334 0 2 -27.398270 12.333333 -16.203292 
335 0 2 -27.893708 12.333333 -15.334696 
336 0 2 -28.361619 12.333333 -14.450966 
337 0 2 -28.801540 12.333333 -13.552976 
338 0 2 -29.213037 12.333333 -12.641610 
339 0 2 -29.595705 12.333333 -11.717768 
340 0 2 -29.949165 12.333333 -10.782363 
341 0 2 -30.273069 12.333333 -9.836316 
342 0 2 -30.567097 12.333333 -8.880563 
343 0 2 -30.830960 12.333333 -7.916045 
344 0 2 -31.064395 12.333333 -6.943715 
345 0 2 -31.267174 12.333333 -5.964532 
346 0 2 -31.439096 12.333333 -4.979464 
347 0 2 -31.579992 12.333333 -3.989481 
348 0 2 -31.689722 12.333333 -2.995561 
349 0 2 -31.768177 12.333333 -1.998684 
350 0 2 -31.815282 12.333333 -0.999836 
351 0 2 -31.830989 12.333333 -0.000000 
352 0 2 -31.815282 12.333333 0.999836 
353 0 2 -31.768177 12.333333 1.998684 
354 0 2 -31.689722 12.333333 2.995561 
355 0 2 -31.579992 12.333333 3.989481 
356 0 2 -31.439096 12.333333 4.979464 
357 0 2 -31.267174 12.333333 5.964532 
358 0 2 -31.064395 12.333333 6.943715 
359 0 2 -30.830960 12.333333 7.916045 
360 0 2 -30.567097 12.333333 8.880563 
361 0 2 -30.273069 12.333333 9.836316 
362 0 2 -29.949165 12.333333 10.782363 
363 0 2 -29.595705 12.333333 11.717768 
364 0 2 -29.213037 12.333333 12.641610 
365 0 2 -28.801540 12.333333 13.552976 
366 0 2 -28.361619 12.333333 14.450966 
367 0 2 -27.893708 12.333333 15.334696 
368 0 2 -27.398270 12.333333 16.203292 
369 0 2 -26.875793 12.333333 17.055897 
370 0 2 -26.326792 12.333333 17.891670 
371 0 2 -25.751811 12.333333 18.709786 
372 0 2 -25.151415 12.333333 19.509437 
373 0 2 -24.526198 12.333333 20.289836 
374 0 2 -23.876777 12.333333 21.050210 
375 0 2 -23.203792 12.333333 21.789811 
376 0 2 -22.507908 12.333333 22.507908 
377 0 2 -21.789811 12.333333 23.203792 
378 0 2 -21.050210 12.333333 23.876777 
379 0 2 -20.289836 12.333333 24.526198 
380 0 2 -19.509437 12.333333 25.151415 
381 0 2 -18.709786 12.333333 25.751811 
382 0 2 -17.891670 12.333333 26.326792 
383 0 2 -17.055897 12.333333 26.875793 
384 0 2 -16.203292 12.333333 27.398270 
385 0 2 -15.334696 12.333333 27.893708 
386 0 2 -14.450966 12.333333 28.361619 
387 0 2 -13.552976 12.333333 28.801540 
388 0 2 -12.641610 12.333333 29.213037 
389 0 2 -11.717768 12.333333 29.595705 
390 0 2 -10.782363 12.333333 29.949165 
391 0 2 -9.836316 12.333333 30.273069 
392 0 2 -8.880563 12.333333 30.567097 
393 0 2 -7.916045 12.333333 30.830960 
394 0 2 -6.943715 12.333333 31.064395 
395 0 2 -5.964532 12.333333 31.267174 
396 0 2 -4.979464 12.333333 31.439096 
397 0 2 -3.989481 12.333333 31.579992 
398 0 2 -2.995561 12.333333 31.689722 
399 0 2 -1.998684 12.333333 31.768177 
400 0 2 -0.999836 12.333333 31.815282 

Bonds

1 1 1 2
2 1 2 3
3 1 3 4
4 1 4 5
5 1 5 6
6 1 6 7
7 1 7 8
8 1 8 9
9 1 9 10
10 1 10 11
11 1 11 12
12 1 12 13
13 1 13 14
14 1 14 15
15 1 15 16
16 1 16 17
17 1 17 18
18 1 18 19
19 1 19 20
20 1 20 21
21 1 21 22
22 1 22 23
23 1 23 24
24 1 24 25
25 1 25 26
26 1 26 27
27 1 27 28
28 1 28 29
29 1 29 30
30 1 30 31
31 1 31 32
32 1 32 33
33 1 33 34
34 1 34 35
35 1 35 36
36 1 36 37
37 1 37 38
38 1 38 39
39 1 39 40
40 1 40 41
41 1 41 42
42 1 42 43
43 1 43 44
44 1 44 45
45 1 45 46
46 1 46 47
47 1 47 48
48 1 48 49
49 1 49 50
50 1 50 51
51 1 51 52
52 1 52 53
53 1 53 54
54 1 54 55
55 1 55 56
56 1 56 57
57 1 57 58
58 1 58 59
59 1 59 60
60 1 60 61
61 1 61 62
62 1 62 63
63 1 63 64
64 1 64 65
65 1 65 66
66 1 66 67
67 1 67 68
68 1 68 69
69 1 69 70
70 1 70 71
71 1 71 72
72 1 72 73
73 1 73 74
74 1 74 75
75 1 75 76
76 1 76 77
77 1 77 78
78 1 78 79
79 1 79 80
80 1 80 81
81 1 81 82
82 1 82 83
83 1 83 84
84 1 84 85
85 1 85 86
86 1 86 87
87 1 87 88
88 1 88 89
89 1 89 90
90 1 90 91
91 1 91 92
92 1 92 93
93 1 93 94
94 1 94 95
95 1 95 96
96 1 96 97
97 1 97 98
98 1 98 99
99 1 99 100
100 1 100 101
101 1 101 102
102 1 102 103
103 1 103 104
104 1 104 105
105 1 105 106
106 1 106 107
107 1 107 108
108 1 108 109
109 1 109 110
110 1 110 111
111 1 111 112
112 1 112 113
113 1 113 114
114 1 114 115
115 1 115 116
116 1 116 117
117 1 117 118
118 1 118 119
119 1 119 120
120 1 120 121
121 1 121 122
122 1 122 123
123 1 123 124
124 1 124 125
125 1 125 126
126 1 126 127
127 1 127 128
128 1 128 129
129 1 129 130
130 1 130 131
131 1 131 132
132 1 132 133
133 1 133 134
134 1 134 135
135 1 135 136
136 1 136 137
137 1 137 138
138 1 138 139
139 1 139 140
140 1 140 141
141 1 141 142
142 1 142 143
143 1 143 144
144 1 144 145
145 1 145 146
146 1 146 147
147 1 147 148
148 1 148 149
149 1 149 150
150 1 150 151
151 1 151 152
152 1 152 153
153 1 153 154
154 1 154 155
155 1 155 156
156 1 156 157
157 1 157 158
158 1 158 159
159 1 159 160
160 1 160 161
161 1 161 162
162 1 162 163
163 1 163 164
164 1 164 165
165 1 165 166
166 1 166 167
167 1 167 168
168 1 168 169
169 1 169 170
170 1 170 171
171 1 171 172
172 1 172 173
173 1 173 174
174 1 174 175
175 1 175 176
176 1 176 177
177 1 177 178
178 1 178 179
179 1 179 180
180 1 180 181
181 1 181 182
182 1 182 183
183 1 183 184
184 1 184 185
185 1 185 186
186 1 186 187
187 1 187 188
188 1 188 189
189 1 189 190
190 1 190 191
191 1 191 192
192 1 192 193
193 1 193 194
194 1 194 195
195 1 195 196
196 1 196 197
197 1 197 198
198 1 198 199
199 1 199 200
200 1 200 1
201 1 201 202
202 1 202 203
203 1 203 204
204 1 204 205
205 1 205 206
206 1 206 207
207 1 207 208
208 1 208 209
209 1 209 210
210 1 210 211
211 1 211 212
212 1 212 213
213 1 213 214
214 1 214 215
215 1 215 216
216 1 216 217
217 1 217 218
218 1 218 219
219 1 219 220
220 1 220 221
221 1 221 222
222 1 222 223
223 1 223 224
224 1 224 225
225 1 225 226
226 1 226 227
227 1 227 228
228 1 228 229
229 1 229 230
230 1 230 231
231 1 231 232
232 1 232 233
233 1 233 234
234 1 234 235
235 1 235 236
236 1 236 237
237 1 237 238
238 1 238 239
239 1 239 240
240 1 240 241
241 1 241 242
242 1 242 243
243 1 243 244
244 1 244 245
245 1 245 246
246 1 246 247
247 1 247 248
248 1 248 249
249 1 249 250
250 1 250 251
251 1 251 252
252 1 252 253
253 1 253 254
254 1 254 255
255 1 255 256
256 1 256 257
257 1 257 258
258 1 258 259
259 1 259 260
260 1 260 261
261 1 261 262
262 1 262 263
263 1 263 264
264 1 264 265
265 1 265 266
266 1 266 267
267 1 267 268
268 1 268 269
269 1 269 270
270 1 270 271
271 1 271 272
272 1 272 273
273 1 273 274
274 1 274 275
275 1 275 276
276 1 276 277
277 1 277 278
278 1 278 279
279 1 279 280
280 1 280 281
281 1 281 282
282 1 282 283
283 1 283 284
284 1 284 285
285 1 285 286
286 1 286 287
287 1 287 288
288 1 288 289
289 1 289 290
290 1 290 291
291 1 291 292
292 1 292 293
293 1 293 294
294 1 294 295
295 1 295 296
296 1 296 297
297 1 297 298
298 1 298 299
299 1 299 300
300 1 300 301
301 1 301 302
302 1 302 303
303 1 303 304
304 1 304 305
305 1 305 306
306 1 306 307
307 1 307 308
308 1 308 309
309 1 309 310
310 1 310 311
311 1 311 312
312 1 312 313
313 1 313 314
314 1 314 315
315 1 315 316
316 1 316 317
317 1 317 318
318 1 318 319
319 1 319 320
320 1 320 321
321 1 321 322
322 1 322 323
323 1 323 324
324 1 324 325
325 1 325 326
326 1 326 327
327 1 327 328
328 1 328 329
329 1 329 330
330 1 330 331
331 1 331 332
332 1 332 333
333 1 333 334
334 1 334 335
335 1 335 336
336 1 336 337
337 1 337 338
338 1 338 339
339 1 339 340
340 1 340 341
341 1 341 342
342 1 342 343
343 1 343 344
344 1 344 345
345 1 345 346
346 1 346 347
347 1 347 348
348 1 348 349
349 1 349 350
350 1 350 351
351 1 351 352
352 1 352 353
353 1 353 354
354 1 354 355
355 1 355 356
356 1 356 357
357 1 357 358
358 1 358 359
359 1 359 360
360 1 360 361
361 1 361 362
362 1 362 363
363 1 363 364
364 1 364 365
365 1 365 366
366 1 366 367
367 1 367 368
368 1 368 369
369 1 369 370
370 1 370 371
371 1 371 372
372 1 372 373
373 1 373 374
374 1 374 375
375 1 375 376
376 1 376 377
377 1 377 378
378 1 378 379
379 1 379 380
380 1 380 381
381 1 381 382
382 1 382 383
383 1 383 384
384 1 384 385
385 1 385 386
386 1 386 387
387 1 387 388
388 1 388 389
389 1 389 390
390 1 390 391
391 1 391 392
392 1 392 393
393 1 393 394
394 1 394 395
395 1 395 396
396 1 396 397
397 1 397 398
398 1 398 399
399 1 399 400
400 1 400 201
401 1 1 50
402 1 201 250
403 1 151 200
404 1 351 400
