LAMMPS data file via write_data, version 29 Sep 2021, timestep = 10000

400 atoms
2 atom types
404 bonds
1 bond types

-37 37 xlo xhi
-37 37 ylo yhi
-37 37 zlo zhi

Masses

1 1
2 1

Atoms # angle

103 0 1 -1.3017223070479311 -12.098159554602436 -29.39454765244671 0 0 0
101 0 1 -0.07260863905428386 -13.066729585347723 -29.813866390120776 0 0 0
102 0 1 -0.3930926125845794 -12.397220709036432 -29.162475225024856 0 0 0
100 0 1 0.8463860281874762 -13.167009253041975 -30.198534327410982 0 0 0
99 0 1 1.7886412565173417 -12.921722712846101 -29.820548254163942 0 0 0
98 0 1 2.7503753824352 -12.768007411562603 -29.44902458233534 0 0 0
97 0 1 3.7055994162907804 -12.531110400770132 -29.211234193384673 0 0 0
305 0 2 -4.142492074174668 11.676209346382745 -29.723491244729015 0 0 0
304 0 2 -3.221296318812417 11.399829719683726 -29.345607174296966 0 0 0
303 0 2 -2.260008616457021 11.050504206845465 -29.13795644652671 0 0 0
301 0 2 -0.2983386019237053 10.75645046828408 -29.161952449386842 0 0 0
300 0 2 0.6389218892067762 10.649872898243036 -29.595465128124623 0 0 0
299 0 2 1.6727455950776526 10.886561470149077 -29.523532103345683 0 0 0
306 0 2 -4.81352853949125 12.210617770914006 -29.180204147172976 0 0 0
107 0 1 -4.995794919367892 -11.969218815944465 -28.186550028659425 0 0 0
104 0 1 -2.2442285841960485 -12.2894205829105 -29.040195426301292 0 0 0
96 0 1 4.493648021863248 -12.642477544512545 -28.617923072665437 0 0 0
95 0 1 5.513107306147585 -12.428162577205123 -28.454345537045924 0 0 0
94 0 1 6.408400201069657 -12.369158622238169 -27.972095406339722 0 0 0
93 0 1 7.287880133932464 -12.90023699724382 -27.972909126558324 0 0 0
92 0 1 8.359382763650588 -12.809565324902096 -27.79024907916008 0 0 0
106 0 1 -4.124642214062582 -11.743576749343925 -28.592258672949523 0 0 0
105 0 1 -3.1201439787807637 -11.786017368310809 -28.832637649827397 0 0 0
310 0 2 -7.81727792060493 11.765662392867291 -27.873243978129825 0 0 0
302 0 2 -1.2785350669456785 10.838114844003487 -28.8130827324555 0 0 0
298 0 2 2.4712642836208505 10.87842081579558 -28.86505482245898 0 0 0
297 0 2 3.4706302643696936 10.809019261465576 -28.787248446322312 0 0 0
296 0 2 4.226449326775811 11.415720121013557 -28.425006024446798 0 0 0
295 0 2 5.089572309422197 11.685813458958231 -27.994353186995983 0 0 0
309 0 2 -7.3385292665821655 12.440264553458247 -28.498593925508708 0 0 0
307 0 2 -5.739860156014583 12.593014862760178 -29.060359488649432 0 0 0
308 0 2 -6.595399174943556 12.07740472344815 -29.11719190612348 0 0 0
111 0 1 -7.8473874882198995 -11.811835510384912 -26.25122848881587 0 0 0
108 0 1 -5.669027382925926 -11.858552835818422 -27.420643049506182 0 0 0
109 0 1 -6.581739783937959 -12.065566645549223 -27.068308194572857 0 0 0
91 0 1 9.126003857632423 -12.749509772590844 -27.14255338368726 0 0 0
90 0 1 10.082555666938644 -12.995179762645032 -26.794172224257714 0 0 0
110 0 1 -6.874062951434106 -11.487016752731265 -26.316396604464124 0 0 0
312 0 2 -9.328379774441114 11.629404968039527 -26.5338510587118 0 0 0
311 0 2 -8.550437668885525 11.690444041088174 -27.17405433016317 0 0 0
293 0 2 6.510851175071186 11.440717421493577 -26.887240856658007 0 0 0
292 0 2 7.453944510317957 11.156376914103433 -26.534285562676185 0 0 0
294 0 2 5.971398951159818 12.017500142624101 -27.533481815641196 0 0 0
89 0 1 9.993840075346501 -13.589962651066225 -25.956717919736555 0 0 0
88 0 1 10.406860885936062 -13.561693072257189 -25.04723887613187 0 0 0
113 0 1 -9.16337957908554 -12.127142690323588 -24.74163771819693 0 0 0
112 0 1 -8.65767400906212 -11.885462307273821 -25.572899801315625 0 0 0
313 0 2 -10.00510771495518 11.414743747431887 -25.79152581158107 0 0 0
291 0 2 7.938661130174586 11.647935844191048 -25.80931957989207 0 0 0
290 0 2 8.778311636855927 11.642072637215024 -25.22833522602255 0 0 0
289 0 2 9.83613266827354 11.688312673332996 -25.318588191535028 0 0 0
288 0 2 10.834869543037616 11.646472833422889 -25.138109560290534 0 0 0
287 0 2 11.423954432740539 11.267852070263261 -24.405778984462188 0 0 0
314 0 2 -10.586351473647177 11.863385411849636 -25.088403942299536 0 0 0
87 0 1 11.207902447735625 -13.384525907780048 -24.387208508976595 0 0 0
115 0 1 -10.891402101365353 -11.860818647018672 -23.63927689424977 0 0 0
114 0 1 -10.023410606279535 -12.056122740247137 -24.12666878277558 0 0 0
86 0 1 11.864920199437893 -12.805103046172539 -23.787252472118464 0 0 0
85 0 1 12.48072039410332 -12.701341305210667 -22.99576112491962 0 0 0
116 0 1 -11.509175634971864 -11.662667972765913 -22.88097372675108 0 0 0
316 0 2 -11.981935369518965 11.731139493797208 -23.89413064874299 0 0 0
286 0 2 12.235515439179085 11.455757282050886 -23.842963469820138 0 0 0
285 0 2 11.911201687635613 11.264425091990196 -22.895170819619917 0 0 0
317 0 2 -12.588767023852617 11.961635109394377 -23.08640830805161 0 0 0
315 0 2 -11.20823345630975 12.021264802071597 -24.397995481745653 0 0 0
84 0 1 12.83247640933762 -12.430965261783646 -22.09016124767768 0 0 0
118 0 1 -13.072482819034915 -11.023428519688977 -21.820136862248656 0 0 0
117 0 1 -12.363853110363767 -11.376886884114866 -22.490305768453247 0 0 0
284 0 2 12.164333941568707 11.565244945823544 -21.920449442893105 0 0 0
319 0 2 -13.66769834402206 11.988144021198872 -21.33321260926441 0 0 0
318 0 2 -13.24452221990124 12.177027120852161 -22.297433737293083 0 0 0
83 0 1 13.29910104168363 -12.203004422461829 -21.229857765872378 0 0 0
82 0 1 13.680558082322197 -12.891333411679087 -20.626178539538337 0 0 0
120 0 1 -13.189793805503419 -11.70013209595603 -19.905665183284384 0 0 0
119 0 1 -13.288520673944058 -11.439420978373333 -20.88291297039482 0 0 0
282 0 2 12.999852209128626 11.751721824359725 -20.132073885721603 0 0 0
320 0 2 -13.78438306222893 12.104896117751652 -20.33172484716155 0 0 0
283 0 2 12.739896789312523 11.917791974881334 -21.140055068912737 0 0 0
121 0 1 -12.845681608987576 -11.930833254771413 -18.92506039354473 0 0 0
81 0 1 13.594313506811794 -12.879526014246544 -19.60426889091219 0 0 0
80 0 1 13.530519344567889 -12.802367847183673 -18.606559065313625 0 0 0
281 0 2 13.23488326575814 11.643078596912558 -19.123816589531955 0 0 0
322 0 2 -13.706376275319153 11.974932710304987 -18.45133680239056 0 0 0
321 0 2 -13.99919382546511 11.856010409100675 -19.378849144292126 0 0 0
280 0 2 12.83073368245146 11.96667496276655 -18.239299682091055 0 0 0
122 0 1 -13.1354582005238 -12.271650202189194 -18.03509964306644 0 0 0
123 0 1 -13.37096910401381 -12.137412160049609 -17.07110840349708 0 0 0
78 0 1 13.042726652351446 -12.505956928576994 -16.753612043573217 0 0 0
79 0 1 13.548341451939297 -12.832202256115984 -17.60825299028421 0 0 0
323 0 2 -13.924188245942883 11.975135438461159 -17.418867682905546 0 0 0
279 0 2 13.161832124122295 12.172191123328062 -17.303972125333065 0 0 0
124 0 1 -13.73158999399623 -11.886892095716796 -16.130966162721958 0 0 0
125 0 1 -13.552867651019971 -11.826466692859274 -15.088235335688838 0 0 0
77 0 1 12.961238008077206 -12.159608245904133 -15.798317360495215 0 0 0
324 0 2 -13.733888472965734 11.749237863698346 -16.429985720714626 0 0 0
277 0 2 12.659340573232699 11.516870321110938 -15.55828898700903 0 0 0
325 0 2 -13.492878702754822 11.874452798431665 -15.469592657625473 0 0 0
278 0 2 12.932089400360363 12.080414856265234 -16.338271649282706 0 0 0
76 0 1 13.030025562043585 -12.103467734301887 -14.748854861836552 0 0 0
75 0 1 12.874101170414834 -12.247105837824042 -13.756363759314155 0 0 0
126 0 1 -13.526799463390947 -11.442158211976121 -14.11971313240474 0 0 0
327 0 2 -13.128550802645353 11.712136941085356 -13.498226077170752 0 0 0
276 0 2 13.127469551520418 11.504329403308143 -14.637610499575018 0 0 0
326 0 2 -13.370119708660335 12.141145545731556 -14.468704788508697 0 0 0
275 0 2 13.036985688156653 12.21964984863308 -13.928788923826865 0 0 0
74 0 1 13.341275146560296 -12.312983761456918 -12.82702525771817 0 0 0
73 0 1 12.797630275684245 -12.171075574204515 -12.01574810618426 0 0 0
128 0 1 -12.729901636669252 -11.799101499842735 -12.20785430684398 0 0 0
127 0 1 -13.020757512892725 -11.672708187288691 -13.255051210786092 0 0 0
274 0 2 13.016362071634296 11.739631957814565 -13.049878909102686 0 0 0
273 0 2 12.86960352396308 11.549974246069516 -12.066666208668988 0 0 0
328 0 2 -12.877449388123624 12.0325058056218 -12.519118812935059 0 0 0
129 0 1 -12.762402197181478 -12.21727502919856 -11.289988190909751 0 0 0
72 0 1 12.330029311981324 -12.362591530274637 -11.04402277549297 0 0 0
329 0 2 -12.303752320952656 11.577860748853176 -11.778213923146213 0 0 0
330 0 2 -12.297293028332218 11.561310820731686 -10.752456861614002 0 0 0
272 0 2 12.761523856908065 11.832891054376145 -11.103469998525645 0 0 0
130 0 1 -12.668796862838446 -12.170301726076653 -10.229283619996185 0 0 0
131 0 1 -12.294352437103749 -12.22726640130054 -9.23492910815142 0 0 0
71 0 1 12.187208818095733 -12.402204265542164 -10.015613417176061 0 0 0
70 0 1 12.276268516688905 -12.281517009151589 -9.006779261220888 0 0 0
331 0 2 -12.019570561989433 11.698374645087785 -9.72110990868095 0 0 0
332 0 2 -11.773401670783684 11.764596138740888 -8.71835008061089 0 0 0
270 0 2 12.282076537354166 11.400552311216472 -9.20295928369087 0 0 0
271 0 2 12.479738469614848 11.810314816942329 -10.142641549382555 0 0 0
132 0 1 -12.033207244567459 -12.654348444314554 -8.384710045110118 0 0 0
133 0 1 -11.335569054955892 -12.589488644057381 -7.650274122532719 0 0 0
68 0 1 11.426867891111211 -12.488577093972895 -7.177246851442845 0 0 0
69 0 1 11.719256683753938 -12.63920014726213 -8.15150848485423 0 0 0
268 0 2 11.393709540639199 11.28569252402111 -7.363024676610518 0 0 0
269 0 2 11.814352105451416 11.09621832300987 -8.308526072296102 0 0 0
333 0 2 -11.412655595489628 12.083690605447234 -7.861875147554449 0 0 0
134 0 1 -11.062292096788529 -12.352713724671935 -6.721599011252365 0 0 0
135 0 1 -10.33641348594314 -12.284435245715928 -5.89660719810185 0 0 0
67 0 1 11.44203574947789 -12.388847525741134 -6.153797580841948 0 0 0
267 0 2 11.028599067834124 11.04751008695593 -6.426648430458967 0 0 0
334 0 2 -11.053431708106789 12.230504848545369 -6.902286396632315 0 0 0
335 0 2 -10.557964201807515 11.979349220863035 -6.006324854928625 0 0 0
136 0 1 -9.996189608071287 -12.561542854628982 -4.960460199370655 0 0 0
137 0 1 -9.582763111497776 -12.950167943656302 -4.084341480842646 0 0 0
66 0 1 10.937643459850031 -12.690236300134842 -5.311198816985859 0 0 0
65 0 1 10.551312894871232 -12.500288897802013 -4.3672178081890936 0 0 0
264 0 2 9.32934204565143 11.67223526331487 -4.177523365869079 0 0 0
265 0 2 9.892983093862112 11.217411540738722 -4.91119470363817 0 0 0
266 0 2 10.614155071256091 10.907082600478331 -5.507683659798106 0 0 0
336 0 2 -9.965530513371354 12.192527767688906 -5.230758350806485 0 0 0
337 0 2 -9.515201252201395 12.228667251455663 -4.336464683959483 0 0 0
138 0 1 -8.721612369421667 -12.95956686984983 -3.5407280157703234 0 0 0
139 0 1 -8.194437350533208 -12.6279484121285 -2.7054670927278828 0 0 0
64 0 1 9.86804524398121 -12.40977640650946 -3.612410654152709 0 0 0
63 0 1 9.056169326087577 -12.509404445679335 -2.9370229823825853 0 0 0
263 0 2 8.908648471089498 11.774251600298964 -3.2651056756347447 0 0 0
338 0 2 -9.184059279873088 11.961875173899934 -3.399546162441235 0 0 0
339 0 2 -8.639014862512761 12.024473747811195 -2.5814724355162624 0 0 0
140 0 1 -7.470603575173496 -12.751465940455397 -1.9291606838986963 0 0 0
141 0 1 -6.855355659247368 -12.825214970638356 -1.0830639687820942 0 0 0
62 0 1 8.62635466904898 -12.406565294001233 -1.9839957291222043 0 0 0
61 0 1 8.183703692577069 -12.496054858202795 -1.0890542646886239 0 0 0
262 0 2 8.463818388184864 11.71282822192565 -2.272420994473082 0 0 0
340 0 2 -8.434188978112735 12.335332859140289 -1.6369833288562157 0 0 0
341 0 2 -7.813805648412782 12.172483126669158 -0.9063899705388525 0 0 0
261 0 2 7.844633386725279 11.815980690820819 -1.442829273771435 0 0 0
142 0 1 -6.347703749644783 -12.590974279910574 -0.2440219061389567 0 0 0
143 0 1 -5.5997337044732225 -12.512984082576994 0.5017426780404981 0 0 0
59 0 1 6.890698520840131 -12.708013241092416 0.44667550965241754 0 0 0
60 0 1 7.497776750130791 -12.598772551167853 -0.3095669281914291 0 0 0
259 0 2 7.022168163272277 11.368933116213594 0.34885530281821403 0 0 0
260 0 2 7.4518730592982205 11.764561624950682 -0.48731635210714663 0 0 0
342 0 2 -7.138269488048293 12.037326372434732 -0.13020538831875128 0 0 0
343 0 2 -6.445780202400313 11.850191257174913 0.654430439288616 0 0 0
144 0 1 -5.238219172687656 -12.596203361079851 1.407658880711128 0 0 0
145 0 1 -4.479166137093112 -12.48518112361925 2.137586881099013 0 0 0
57 0 1 5.988508848050625 -12.258541812730952 2.0644849809661383 0 0 0
58 0 1 6.590017456905338 -12.796699793358387 1.464121575348817 0 0 0
344 0 2 -5.837432513612337 11.691841717715034 1.4460507376608 0 0 0
257 0 2 6.024517463812617 11.604929299191726 2.0882156166096686 0 0 0
258 0 2 6.491710482183946 11.424642066019658 1.2215046928172735 0 0 0
345 0 2 -5.400082594204487 11.938590204363706 2.327048841727102 0 0 0
146 0 1 -4.262848279031903 -12.73788668925096 3.1002133088116812 0 0 0
56 0 1 5.485300851915191 -11.96838686083157 2.8838295539229652 0 0 0
55 0 1 4.828344537419791 -12.07223658523415 3.671494519740498 0 0 0
255 0 2 4.603147253856972 11.70368457427677 3.6431749700165565 0 0 0
256 0 2 5.347421826147753 11.765493064779307 2.868491846523583 0 0 0
346 0 2 -4.742659956591999 11.933914557769626 3.128524534539687 0 0 0
147 0 1 -3.830080939233725 -12.578134701207086 4.041859362523441 0 0 0
148 0 1 -3.168571061428918 -12.749508436608563 4.757408469718201 0 0 0
54 0 1 4.300544780295667 -12.034864570871111 4.576859918747102 0 0 0
53 0 1 3.641674856023451 -11.454866813244466 5.196049350633113 0 0 0
347 0 2 -4.111940522679482 12.074512325916391 3.9451967781947554 0 0 0
348 0 2 -3.6484345636445137 12.051275826970468 4.803278993302876 0 0 0
253 0 2 2.9991618020928756 11.894901775103298 5.021466260817064 0 0 0
254 0 2 3.847246394922662 11.845838465286043 4.41754116416634 0 0 0
149 0 1 -2.6747101666295396 -12.636264542183676 5.644419068486424 0 0 0
150 0 1 -2.08040498833818 -12.455397999687543 6.4672468019628155 0 0 0
51 0 1 2.273949824790796 -11.890750740047654 6.693575569383671 0 0 0
52 0 1 2.9697548406958343 -11.708299424645338 5.952997535225582 0 0 0
349 0 2 -3.035300544573382 11.987919355273897 5.5679361890698305 0 0 0
350 0 2 -2.232011012232619 11.968824406468475 6.237979615919066 0 0 0
351 0 2 -1.6311842719875702 12.251396705096987 7.03043866586774 0 0 0
251 0 2 1.817353709672703 11.965008468865681 6.70335232554504 0 0 0
252 0 2 2.424961516223089 12.016962161810294 5.889233647098229 0 0 0
152 0 1 -2.3298746911451502 -11.892693077073535 7.648553175730883 0 0 0
151 0 1 -1.3891124007878946 -12.113330041905321 7.20324924770433 0 0 0
200 0 1 -0.43382894895771373 -12.252826132326518 7.707739538285502 0 0 0
1 0 1 0.6232117449041414 -12.413536395933058 7.666046103980885 0 0 0
2 0 1 1.0956943485781574 -12.842068447055102 8.512155895454685 0 0 0
50 0 1 1.611673360227171 -12.183741661435535 7.394995802774522 0 0 0
153 0 1 -3.0434395582624516 -11.6711497170276 8.326653467145425 0 0 0
49 0 1 2.209476971631384 -11.804709791024296 8.182489804789942 0 0 0
48 0 1 3.2253801336053423 -11.72708149511951 8.478136076489037 0 0 0
354 0 2 -4.543120528626846 12.464262368702245 8.059207878698414 0 0 0
353 0 2 -3.5878554455886547 12.597697991599828 7.714844919798319 0 0 0
352 0 2 -2.596529567423256 12.50546731711874 7.395050915500294 0 0 0
399 0 2 -1.262621222614851 12.540432512129561 8.423424463119503 0 0 0
400 0 2 -0.7491970150410521 12.222753204884132 7.634412588000003 0 0 0
201 0 2 0.3152542217239976 12.411037515251163 7.744523927694619 0 0 0
250 0 2 1.3029917964229643 12.271881480644165 7.517897287051773 0 0 0
249 0 2 2.281110605449656 12.008439793257883 7.852305386802332 0 0 0
202 0 2 0.9441811432717734 11.942155968652841 8.43666324942258 0 0 0
248 0 2 3.2090914766235703 12.376126611829537 8.161542119942633 0 0 0
247 0 2 4.098592056142799 12.644476592470888 8.513586758597867 0 0 0
156 0 1 -5.796396627584211 -11.884980808380254 8.848281102992388 0 0 0
197 0 1 -2.639980982037798 -12.686531109545355 9.592897420978996 0 0 0
196 0 1 -3.638653717638865 -12.534917356325483 9.8243517876125 0 0 0
199 0 1 -0.8137124781656383 -12.51696552984528 8.669780440247337 0 0 0
198 0 1 -1.7110642655296229 -12.596716756654056 9.212456465418752 0 0 0
3 0 1 1.7309218551737553 -13.011701094646552 9.249142825585237 0 0 0
4 0 1 2.2901512562209425 -13.154896694729299 10.082237235255691 0 0 0
47 0 1 4.096331059088599 -11.822766898958102 9.087473761017788 0 0 0
159 0 1 -8.732269884293602 -11.648558322784526 9.937577511027326 0 0 0
160 0 1 -9.70924921500124 -11.485610525911245 9.965717559880128 0 0 0
158 0 1 -7.748196327777872 -11.782248963735848 9.62664504147383 0 0 0
157 0 1 -6.802095605854697 -11.760762600352122 9.168771431356179 0 0 0
155 0 1 -4.76295032005465 -11.713818158870211 8.988948418207594 0 0 0
154 0 1 -3.92374034724194 -11.279695095021735 8.701362518455158 0 0 0
46 0 1 5.110461995691766 -11.68504340801879 9.196168978620062 0 0 0
45 0 1 6.039449557821743 -11.698032689934337 9.670375823317444 0 0 0
203 0 2 1.4927216542015287 11.624187164907173 9.287873695780007 0 0 0
204 0 2 2.165712829193418 11.275126253757861 9.942685009821496 0 0 0
357 0 2 -6.99352902700061 12.084394201165917 9.583887096578005 0 0 0
356 0 2 -6.096436097500625 12.418314306821575 9.194034850926437 0 0 0
355 0 2 -5.181713485146204 12.200332147956757 8.777907809560451 0 0 0
397 0 2 -2.5027626279834414 13.00901148212817 9.841988228829788 0 0 0
398 0 2 -1.886848976871831 13.056305714911673 9.025888621289983 0 0 0
246 0 2 5.030403971901827 12.44641675471878 8.911876659898342 0 0 0
245 0 2 5.961126024585605 12.18501020925607 9.2371350675974 0 0 0
244 0 2 6.820347576294511 12.428282781985441 9.698447930586738 0 0 0
193 0 1 -6.178721670478063 -12.540133724429454 11.544717064251143 0 0 0
195 0 1 -4.48188683725432 -12.716082733367363 10.405937844943036 0 0 0
194 0 1 -5.2739382460259625 -12.595428958256216 11.031157137961019 0 0 0
5 0 1 3.0767025563837485 -12.800634858247824 10.651192978188368 0 0 0
6 0 1 3.471770438131395 -13.139027325550343 11.54809902586098 0 0 0
41 0 1 9.459006731101166 -11.87788638299488 11.54114055534621 0 0 0
163 0 1 -12.448000915620517 -11.670786834403978 11.34470572229228 0 0 0
162 0 1 -11.486809662027108 -11.727167689163563 11.016274778658614 0 0 0
161 0 1 -10.575880600129462 -11.487896376472612 10.503180175152467 0 0 0
44 0 1 6.706127446589394 -11.336103172247098 10.39896259318931 0 0 0
42 0 1 8.630393147837976 -11.514976288294612 11.015349182383503 0 0 0
43 0 1 7.712942191038248 -11.258648219129157 10.756689646971845 0 0 0
206 0 2 3.7335054438834434 11.50788034932377 11.19014318554708 0 0 0
205 0 2 2.9384574240798647 11.380092509922344 10.600822365972785 0 0 0
361 0 2 -10.332874122092344 12.588645995126118 11.615572186106537 0 0 0
360 0 2 -9.446240836246409 12.762877206675816 11.163791702084461 0 0 0
359 0 2 -8.579557062494834 12.662503648487757 10.62088123584369 0 0 0
358 0 2 -7.837353200691731 12.024853974362008 10.270478203793308 0 0 0
395 0 2 -3.527671227294897 12.852339854723722 11.54912844171767 0 0 0
396 0 2 -2.991963274598667 12.65802482020268 10.668265247959202 0 0 0
243 0 2 7.608739559408226 12.47438797381699 10.360737043043738 0 0 0
242 0 2 8.534183805480986 12.361272719812922 10.797180996573518 0 0 0
241 0 2 9.442443046227538 12.002927947327644 11.052342837054386 0 0 0
240 0 2 10.264630576208926 12.163272342630117 11.70664168443153 0 0 0
166 0 1 -15.051675003485878 -11.904583586384565 12.855893184765756 0 0 0
165 0 1 -14.088106529789307 -11.856999168294713 12.509218021157551 0 0 0
191 0 1 -7.384223328627927 -13.01180525013118 13.003493595317112 0 0 0
192 0 1 -6.937692803512773 -12.913940639150947 12.108038339568745 0 0 0
7 0 1 4.366181577311092 -13.208887132729599 12.042397764304653 0 0 0
8 0 1 4.857372186093585 -12.897006325192093 12.820351047571293 0 0 0
9 0 1 5.889642482300135 -12.88044798094127 13.083007870849322 0 0 0
40 0 1 10.371160189144288 -12.060189052189507 11.926226400562628 0 0 0
39 0 1 11.099218958120485 -12.174238868886468 12.626362175297189 0 0 0
164 0 1 -13.17473259818773 -11.751251740919717 12.094863911744547 0 0 0
208 0 2 5.435523225815997 11.554184289956293 12.245772396345576 0 0 0
207 0 2 4.461391784795385 11.455736055812372 11.829080140227616 0 0 0
209 0 2 5.978120815611553 11.241565983391874 13.036458967549427 0 0 0
365 0 2 -13.866944415021385 12.681329735781437 12.867861379375118 0 0 0
364 0 2 -12.854154479205638 12.67185999060857 12.798488258913878 0 0 0
363 0 2 -11.861534721077316 12.733210854390023 12.598613833834456 0 0 0
362 0 2 -11.315103199714708 12.410010394554408 11.833080375584995 0 0 0
394 0 2 -4.218170687484922 12.756593441014207 12.336374226525725 0 0 0
393 0 2 -5.013726014145585 12.608528255305245 12.971363016110923 0 0 0
239 0 2 11.060095367625458 12.542241681156495 12.179719298801913 0 0 0
238 0 2 11.746742542671397 12.92238867749828 12.834128813991905 0 0 0
237 0 2 12.68903589691292 13.276872414714788 13.153666212653981 0 0 0
167 0 1 -15.73065477661963 -11.897807645985537 13.622853471548007 0 0 0
189 0 1 -8.904363207679385 -12.838988467047162 14.457802887821517 0 0 0
188 0 1 -9.778201725627245 -13.230465616954406 14.918676396568552 0 0 0
190 0 1 -8.067973552591088 -12.989890398455483 13.802501708835974 0 0 0
10 0 1 6.67532389481951 -12.986973768375915 13.840235454408962 0 0 0
11 0 1 7.65022534424191 -12.958984326182067 13.964762406878831 0 0 0
12 0 1 8.425835891554005 -13.08444465207401 14.629161142857663 0 0 0
37 0 1 12.297475691937864 -12.142158601827798 13.834618631251216 0 0 0
36 0 1 13.214019561399908 -12.237097551134694 14.09368762963303 0 0 0
35 0 1 14.144935454259613 -12.15350925836668 14.445854181969636 0 0 0
34 0 1 14.957589005654816 -12.658804959647464 14.809598754898433 0 0 0
33 0 1 16.01327692883573 -12.640941058213965 14.900795147254682 0 0 0
170 0 1 -18.286818774536894 -11.503332640514124 14.92124442884311 0 0 0
169 0 1 -17.283829936543906 -11.410125493312067 14.817994454290881 0 0 0
168 0 1 -16.52611404942202 -11.608271635516429 14.12317742560949 0 0 0
38 0 1 11.495482509304507 -11.671658119269226 13.424862992058793 0 0 0
210 0 2 6.864734834347874 11.309352884308831 13.467039679045593 0 0 0
212 0 2 8.31903624489762 11.80055999378948 14.566996721624974 0 0 0
367 0 2 -15.29389456016326 12.397816334386963 14.239844142293359 0 0 0
366 0 2 -14.496493791528579 12.69271178040568 13.663875379135975 0 0 0
390 0 2 -7.2291004156446945 12.0175882598027 14.761063604593968 0 0 0
392 0 2 -5.5513538066785 12.152245154584584 13.757426204536007 0 0 0
391 0 2 -6.384261735858701 11.809350422357515 14.231633664770975 0 0 0
211 0 2 7.4910912117993185 11.940317711162255 13.998856605211838 0 0 0
236 0 2 13.476912787194184 13.276014371021423 13.83051585758616 0 0 0
235 0 2 14.116631771442304 13.013159631480725 14.514638397804639 0 0 0
13 0 1 8.6242418325805 -13.427628819846156 15.57939339630556 0 0 0
14 0 1 9.496768090570534 -13.891304780774146 15.794850078556058 0 0 0
171 0 1 -18.966074402677204 -11.85834179677247 15.500471195336498 0 0 0
172 0 1 -19.02208715241058 -11.92019856452271 16.473426616406133 0 0 0
186 0 1 -11.32482627405688 -12.702959073292218 16.069737726647453 0 0 0
187 0 1 -10.58894915835575 -12.734205485759144 15.351204396121975 0 0 0
32 0 1 16.96703286093537 -12.605183258517956 15.11790763900997 0 0 0
31 0 1 17.242907025049252 -12.482439996994964 16.082020055391595 0 0 0
388 0 2 -9.056819936311065 11.699933419332561 15.600031823103 0 0 0
213 0 2 9.183217607263007 11.54488227029821 15.038038001424557 0 0 0
214 0 2 10.047525429771893 11.153961175288732 15.44452617859377 0 0 0
215 0 2 11.0559097318162 10.940563635083828 15.660570955213428 0 0 0
216 0 2 11.730962205717292 11.029562491055051 16.424422264265225 0 0 0
369 0 2 -16.375946705896837 11.849997991116396 15.778149795244454 0 0 0
368 0 2 -15.755269057930294 12.250166363294992 15.155375999775114 0 0 0
387 0 2 -9.670830506763537 11.95263782481579 16.391477779017507 0 0 0
389 0 2 -8.235811375535897 11.978320368325205 15.032151543049096 0 0 0
234 0 2 14.81796518010501 12.950225023113042 15.241271561754287 0 0 0
233 0 2 15.717285687697242 12.500935128287589 15.478614230446034 0 0 0
232 0 2 16.368881032075382 13.12369509140452 16.04108733723374 0 0 0
231 0 2 17.180747038459124 13.6613313830303 16.31235669104831 0 0 0
15 0 1 10.092311603285298 -13.919848584442045 16.647644832112885 0 0 0
16 0 1 10.946668836846824 -13.855754115926715 17.243456170613715 0 0 0
17 0 1 11.594350786465533 -13.515336873857686 17.968132624156343 0 0 0
183 0 1 -13.922816341342035 -12.046702935338068 17.680822322726186 0 0 0
185 0 1 -12.24288204967008 -12.616269804826832 16.5883618258831 0 0 0
184 0 1 -13.18783787118904 -12.395790075511345 17.09573443131356 0 0 0
18 0 1 12.614336602194422 -13.306703919457362 17.966759230460635 0 0 0
19 0 1 13.370749428024107 -12.608575198945612 18.09368787131295 0 0 0
30 0 1 17.71543394542584 -12.466917229291237 16.97282785245185 0 0 0
29 0 1 17.857715837537295 -12.513037511808049 18.009638591404702 0 0 0
173 0 1 -19.08110748448658 -11.297038764926878 17.30057742475637 0 0 0
373 0 2 -18.908211942479173 11.025001752716728 18.100310010462955 0 0 0
372 0 2 -18.459141125236556 11.780346150596571 17.593206176793945 0 0 0
370 0 2 -16.995772620181604 11.576049607098831 16.563432610440838 0 0 0
371 0 2 -17.99821997845227 11.537632154460526 16.699422119677262 0 0 0
217 0 2 12.727778304062802 11.267617383912713 16.545095521689245 0 0 0
218 0 2 13.679775016869288 11.583397521958146 16.766437651517165 0 0 0
219 0 2 13.916623495813903 10.763548144497463 17.43547366940417 0 0 0
220 0 2 14.597562563194938 10.26964261698306 18.01627173552953 0 0 0
383 0 2 -13.316832248136935 12.394617562182253 17.81917669845928 0 0 0
384 0 2 -12.376819292429298 12.460129141605249 17.3947690605526 0 0 0
385 0 2 -11.355965362988535 12.45914925158234 17.42119544595564 0 0 0
386 0 2 -10.500762416214544 12.00496568168066 17.025847107944045 0 0 0
230 0 2 17.50323258592464 13.531499634001817 17.229801769924435 0 0 0
179 0 1 -17.025281272845962 -12.162033720858132 19.366715087024883 0 0 0
181 0 1 -15.499504830860088 -12.53772326551523 18.578151035133168 0 0 0
180 0 1 -16.120572091684263 -12.680818938969777 19.368771285279255 0 0 0
182 0 1 -14.64928563869083 -11.979372476639657 18.354840668120985 0 0 0
20 0 1 14.278166496147731 -12.686722245482791 18.527275720475117 0 0 0
21 0 1 15.022307977495629 -12.576457230691727 19.17639831370724 0 0 0
22 0 1 15.966751663407056 -12.645785117312911 19.582211871958634 0 0 0
28 0 1 18.514571731016105 -11.917288811142912 18.51842467130351 0 0 0
27 0 1 18.703682462355555 -12.874332188805447 18.429977296600445 0 0 0
26 0 1 19.101415470234052 -12.853280776021398 19.359168958174816 0 0 0
175 0 1 -18.914783396108245 -11.765727390056055 18.750829877276708 0 0 0
174 0 1 -18.562784539548876 -11.06205019860874 18.113785532321533 0 0 0
221 0 2 15.491164692612683 10.365019741547542 18.444623289940388 0 0 0
222 0 2 16.19118302821536 11.038829218011434 18.760098219829793 0 0 0
223 0 2 16.830224000123287 11.234451073706053 19.551409879384167 0 0 0
226 0 2 18.463432320879708 11.630594025615641 19.307712622674025 0 0 0
374 0 2 -19.099185407284924 11.915231759855873 18.556413998016986 0 0 0
375 0 2 -19.620862232991527 12.03392710971617 19.408760100564525 0 0 0
379 0 2 -17.13503695370015 12.840904160610556 18.408441482661406 0 0 0
378 0 2 -17.14762835803612 12.822989488173512 19.467120832586815 0 0 0
377 0 2 -17.914848104554903 12.234716744832735 19.49413850529632 0 0 0
380 0 2 -16.27920913144766 12.373119760620694 18.381247852546824 0 0 0
381 0 2 -15.271380777024097 12.609915554903118 18.408558358173224 0 0 0
382 0 2 -14.253863163978995 12.5528260056667 18.279485340200917 0 0 0
228 0 2 18.41904127927721 12.969074811681457 18.89658603048877 0 0 0
227 0 2 18.994855720169994 12.141277896727773 18.653437404595902 0 0 0
229 0 2 17.882780137270185 13.609314099752705 18.237926644523277 0 0 0
177 0 1 -18.065148617181 -11.932664959942054 20.245073804093643 0 0 0
23 0 1 16.83341964592473 -12.32299594303058 20.074647035574877 0 0 0
24 0 1 17.79648639439255 -12.265972445379699 19.81915105385458 0 0 0
25 0 1 18.495435043571582 -12.91003269232601 20.225595627084786 0 0 0
176 0 1 -18.798403920921917 -11.498275934487488 19.725540619397467 0 0 0
178 0 1 -17.227683032650283 -11.322592753464349 20.001633074263694 0 0 0
376 0 2 -18.71704686456239 11.736436298974734 19.798800969294575 0 0 0
224 0 2 17.761743991811628 11.485133377225386 19.919464128358605 0 0 0
225 0 2 18.517500090104676 12.003870388497289 20.259427574713083 0 0 0

Velocities

103 0 0 0
101 0 0 0
102 0 0 0
100 0 0 0
99 0 0 0
98 0 0 0
97 0 0 0
305 0 0 0
304 0 0 0
303 0 0 0
301 0 0 0
300 0 0 0
299 0 0 0
306 0 0 0
107 0 0 0
104 0 0 0
96 0 0 0
95 0 0 0
94 0 0 0
93 0 0 0
92 0 0 0
106 0 0 0
105 0 0 0
310 0 0 0
302 0 0 0
298 0 0 0
297 0 0 0
296 0 0 0
295 0 0 0
309 0 0 0
307 0 0 0
308 0 0 0
111 0 0 0
108 0 0 0
109 0 0 0
91 0 0 0
90 0 0 0
110 0 0 0
312 0 0 0
311 0 0 0
293 0 0 0
292 0 0 0
294 0 0 0
89 0 0 0
88 0 0 0
113 0 0 0
112 0 0 0
313 0 0 0
291 0 0 0
290 0 0 0
289 0 0 0
288 0 0 0
287 0 0 0
314 0 0 0
87 0 0 0
115 0 0 0
114 0 0 0
86 0 0 0
85 0 0 0
116 0 0 0
316 0 0 0
286 0 0 0
285 0 0 0
317 0 0 0
315 0 0 0
84 0 0 0
118 0 0 0
117 0 0 0
284 0 0 0
319 0 0 0
318 0 0 0
83 0 0 0
82 0 0 0
120 0 0 0
119 0 0 0
282 0 0 0
320 0 0 0
283 0 0 0
121 0 0 0
81 0 0 0
80 0 0 0
281 0 0 0
322 0 0 0
321 0 0 0
280 0 0 0
122 0 0 0
123 0 0 0
78 0 0 0
79 0 0 0
323 0 0 0
279 0 0 0
124 0 0 0
125 0 0 0
77 0 0 0
324 0 0 0
277 0 0 0
325 0 0 0
278 0 0 0
76 0 0 0
75 0 0 0
126 0 0 0
327 0 0 0
276 0 0 0
326 0 0 0
275 0 0 0
74 0 0 0
73 0 0 0
128 0 0 0
127 0 0 0
274 0 0 0
273 0 0 0
328 0 0 0
129 0 0 0
72 0 0 0
329 0 0 0
330 0 0 0
272 0 0 0
130 0 0 0
131 0 0 0
71 0 0 0
70 0 0 0
331 0 0 0
332 0 0 0
270 0 0 0
271 0 0 0
132 0 0 0
133 0 0 0
68 0 0 0
69 0 0 0
268 0 0 0
269 0 0 0
333 0 0 0
134 0 0 0
135 0 0 0
67 0 0 0
267 0 0 0
334 0 0 0
335 0 0 0
136 0 0 0
137 0 0 0
66 0 0 0
65 0 0 0
264 0 0 0
265 0 0 0
266 0 0 0
336 0 0 0
337 0 0 0
138 0 0 0
139 0 0 0
64 0 0 0
63 0 0 0
263 0 0 0
338 0 0 0
339 0 0 0
140 0 0 0
141 0 0 0
62 0 0 0
61 0 0 0
262 0 0 0
340 0 0 0
341 0 0 0
261 0 0 0
142 0 0 0
143 0 0 0
59 0 0 0
60 0 0 0
259 0 0 0
260 0 0 0
342 0 0 0
343 0 0 0
144 0 0 0
145 0 0 0
57 0 0 0
58 0 0 0
344 0 0 0
257 0 0 0
258 0 0 0
345 0 0 0
146 0 0 0
56 0 0 0
55 0 0 0
255 0 0 0
256 0 0 0
346 0 0 0
147 0 0 0
148 0 0 0
54 0 0 0
53 0 0 0
347 0 0 0
348 0 0 0
253 0 0 0
254 0 0 0
149 0 0 0
150 0 0 0
51 0 0 0
52 0 0 0
349 0 0 0
350 0 0 0
351 0 0 0
251 0 0 0
252 0 0 0
152 0 0 0
151 0 0 0
200 0 0 0
1 0 0 0
2 0 0 0
50 0 0 0
153 0 0 0
49 0 0 0
48 0 0 0
354 0 0 0
353 0 0 0
352 0 0 0
399 0 0 0
400 0 0 0
201 0 0 0
250 0 0 0
249 0 0 0
202 0 0 0
248 0 0 0
247 0 0 0
156 0 0 0
197 0 0 0
196 0 0 0
199 0 0 0
198 0 0 0
3 0 0 0
4 0 0 0
47 0 0 0
159 0 0 0
160 0 0 0
158 0 0 0
157 0 0 0
155 0 0 0
154 0 0 0
46 0 0 0
45 0 0 0
203 0 0 0
204 0 0 0
357 0 0 0
356 0 0 0
355 0 0 0
397 0 0 0
398 0 0 0
246 0 0 0
245 0 0 0
244 0 0 0
193 0 0 0
195 0 0 0
194 0 0 0
5 0 0 0
6 0 0 0
41 0 0 0
163 0 0 0
162 0 0 0
161 0 0 0
44 0 0 0
42 0 0 0
43 0 0 0
206 0 0 0
205 0 0 0
361 0 0 0
360 0 0 0
359 0 0 0
358 0 0 0
395 0 0 0
396 0 0 0
243 0 0 0
242 0 0 0
241 0 0 0
240 0 0 0
166 0 0 0
165 0 0 0
191 0 0 0
192 0 0 0
7 0 0 0
8 0 0 0
9 0 0 0
40 0 0 0
39 0 0 0
164 0 0 0
208 0 0 0
207 0 0 0
209 0 0 0
365 0 0 0
364 0 0 0
363 0 0 0
362 0 0 0
394 0 0 0
393 0 0 0
239 0 0 0
238 0 0 0
237 0 0 0
167 0 0 0
189 0 0 0
188 0 0 0
190 0 0 0
10 0 0 0
11 0 0 0
12 0 0 0
37 0 0 0
36 0 0 0
35 0 0 0
34 0 0 0
33 0 0 0
170 0 0 0
169 0 0 0
168 0 0 0
38 0 0 0
210 0 0 0
212 0 0 0
367 0 0 0
366 0 0 0
390 0 0 0
392 0 0 0
391 0 0 0
211 0 0 0
236 0 0 0
235 0 0 0
13 0 0 0
14 0 0 0
171 0 0 0
172 0 0 0
186 0 0 0
187 0 0 0
32 0 0 0
31 0 0 0
388 0 0 0
213 0 0 0
214 0 0 0
215 0 0 0
216 0 0 0
369 0 0 0
368 0 0 0
387 0 0 0
389 0 0 0
234 0 0 0
233 0 0 0
232 0 0 0
231 0 0 0
15 0 0 0
16 0 0 0
17 0 0 0
183 0 0 0
185 0 0 0
184 0 0 0
18 0 0 0
19 0 0 0
30 0 0 0
29 0 0 0
173 0 0 0
373 0 0 0
372 0 0 0
370 0 0 0
371 0 0 0
217 0 0 0
218 0 0 0
219 0 0 0
220 0 0 0
383 0 0 0
384 0 0 0
385 0 0 0
386 0 0 0
230 0 0 0
179 0 0 0
181 0 0 0
180 0 0 0
182 0 0 0
20 0 0 0
21 0 0 0
22 0 0 0
28 0 0 0
27 0 0 0
26 0 0 0
175 0 0 0
174 0 0 0
221 0 0 0
222 0 0 0
223 0 0 0
226 0 0 0
374 0 0 0
375 0 0 0
379 0 0 0
378 0 0 0
377 0 0 0
380 0 0 0
381 0 0 0
382 0 0 0
228 0 0 0
227 0 0 0
229 0 0 0
177 0 0 0
23 0 0 0
24 0 0 0
25 0 0 0
176 0 0 0
178 0 0 0
376 0 0 0
224 0 0 0
225 0 0 0

Bonds

1 1 103 104
2 1 101 102
3 1 102 103
4 1 100 101
5 1 99 100
6 1 98 99
7 1 97 98
8 1 305 306
9 1 304 305
10 1 303 304
11 1 301 302
12 1 300 301
13 1 299 300
14 1 306 307
15 1 107 108
16 1 104 105
17 1 96 97
18 1 95 96
19 1 94 95
20 1 93 94
21 1 92 93
22 1 106 107
23 1 105 106
24 1 310 311
25 1 302 303
26 1 298 299
27 1 297 298
28 1 296 297
29 1 295 296
30 1 309 310
31 1 307 308
32 1 308 309
33 1 111 112
34 1 108 109
35 1 109 110
36 1 91 92
37 1 90 91
38 1 110 111
39 1 312 313
40 1 311 312
41 1 293 294
42 1 292 293
43 1 294 295
44 1 89 90
45 1 88 89
46 1 113 114
47 1 112 113
48 1 313 314
49 1 291 292
50 1 290 291
51 1 289 290
52 1 288 289
53 1 287 288
54 1 314 315
55 1 87 88
56 1 115 116
57 1 114 115
58 1 86 87
59 1 85 86
60 1 116 117
61 1 316 317
62 1 286 287
63 1 285 286
64 1 317 318
65 1 315 316
66 1 84 85
67 1 118 119
68 1 117 118
69 1 284 285
70 1 319 320
71 1 318 319
72 1 83 84
73 1 82 83
74 1 120 121
75 1 119 120
76 1 282 283
77 1 320 321
78 1 283 284
79 1 121 122
80 1 81 82
81 1 80 81
82 1 281 282
83 1 322 323
84 1 321 322
85 1 280 281
86 1 122 123
87 1 123 124
88 1 78 79
89 1 79 80
90 1 323 324
91 1 279 280
92 1 124 125
93 1 125 126
94 1 77 78
95 1 324 325
96 1 277 278
97 1 325 326
98 1 278 279
99 1 76 77
100 1 75 76
101 1 126 127
102 1 327 328
103 1 276 277
104 1 326 327
105 1 275 276
106 1 74 75
107 1 73 74
108 1 128 129
109 1 127 128
110 1 274 275
111 1 273 274
112 1 328 329
113 1 129 130
114 1 72 73
115 1 329 330
116 1 330 331
117 1 272 273
118 1 130 131
119 1 131 132
120 1 71 72
121 1 70 71
122 1 331 332
123 1 332 333
124 1 270 271
125 1 271 272
126 1 132 133
127 1 133 134
128 1 68 69
129 1 69 70
130 1 268 269
131 1 269 270
132 1 333 334
133 1 134 135
134 1 135 136
135 1 67 68
136 1 267 268
137 1 334 335
138 1 335 336
139 1 136 137
140 1 137 138
141 1 66 67
142 1 65 66
143 1 264 265
144 1 265 266
145 1 266 267
146 1 336 337
147 1 337 338
148 1 138 139
149 1 139 140
150 1 64 65
151 1 63 64
152 1 263 264
153 1 338 339
154 1 339 340
155 1 140 141
156 1 141 142
157 1 62 63
158 1 61 62
159 1 262 263
160 1 340 341
161 1 341 342
162 1 261 262
163 1 142 143
164 1 143 144
165 1 59 60
166 1 60 61
167 1 259 260
168 1 260 261
169 1 342 343
170 1 343 344
171 1 144 145
172 1 145 146
173 1 57 58
174 1 58 59
175 1 344 345
176 1 257 258
177 1 258 259
178 1 345 346
179 1 146 147
180 1 56 57
181 1 55 56
182 1 255 256
183 1 256 257
184 1 346 347
185 1 147 148
186 1 148 149
187 1 54 55
188 1 53 54
189 1 347 348
190 1 348 349
191 1 253 254
192 1 254 255
193 1 149 150
194 1 150 151
195 1 51 52
196 1 52 53
197 1 349 350
198 1 350 351
199 1 351 352
200 1 351 400
201 1 251 252
202 1 252 253
203 1 152 153
204 1 151 152
205 1 151 200
206 1 200 1
207 1 1 2
208 1 1 50
209 1 2 3
210 1 50 51
211 1 153 154
212 1 49 50
213 1 48 49
214 1 354 355
215 1 353 354
216 1 352 353
217 1 399 400
218 1 400 201
219 1 201 202
220 1 201 250
221 1 250 251
222 1 249 250
223 1 202 203
224 1 248 249
225 1 247 248
226 1 156 157
227 1 197 198
228 1 196 197
229 1 199 200
230 1 198 199
231 1 3 4
232 1 4 5
233 1 47 48
234 1 159 160
235 1 160 161
236 1 158 159
237 1 157 158
238 1 155 156
239 1 154 155
240 1 46 47
241 1 45 46
242 1 203 204
243 1 204 205
244 1 357 358
245 1 356 357
246 1 355 356
247 1 397 398
248 1 398 399
249 1 246 247
250 1 245 246
251 1 244 245
252 1 193 194
253 1 195 196
254 1 194 195
255 1 5 6
256 1 6 7
257 1 41 42
258 1 163 164
259 1 162 163
260 1 161 162
261 1 44 45
262 1 42 43
263 1 43 44
264 1 206 207
265 1 205 206
266 1 361 362
267 1 360 361
268 1 359 360
269 1 358 359
270 1 395 396
271 1 396 397
272 1 243 244
273 1 242 243
274 1 241 242
275 1 240 241
276 1 166 167
277 1 165 166
278 1 191 192
279 1 192 193
280 1 7 8
281 1 8 9
282 1 9 10
283 1 40 41
284 1 39 40
285 1 164 165
286 1 208 209
287 1 207 208
288 1 209 210
289 1 365 366
290 1 364 365
291 1 363 364
292 1 362 363
293 1 394 395
294 1 393 394
295 1 239 240
296 1 238 239
297 1 237 238
298 1 167 168
299 1 189 190
300 1 188 189
301 1 190 191
302 1 10 11
303 1 11 12
304 1 12 13
305 1 37 38
306 1 36 37
307 1 35 36
308 1 34 35
309 1 33 34
310 1 170 171
311 1 169 170
312 1 168 169
313 1 38 39
314 1 210 211
315 1 212 213
316 1 367 368
317 1 366 367
318 1 390 391
319 1 392 393
320 1 391 392
321 1 211 212
322 1 236 237
323 1 235 236
324 1 13 14
325 1 14 15
326 1 171 172
327 1 172 173
328 1 186 187
329 1 187 188
330 1 32 33
331 1 31 32
332 1 388 389
333 1 213 214
334 1 214 215
335 1 215 216
336 1 216 217
337 1 369 370
338 1 368 369
339 1 387 388
340 1 389 390
341 1 234 235
342 1 233 234
343 1 232 233
344 1 231 232
345 1 15 16
346 1 16 17
347 1 17 18
348 1 183 184
349 1 185 186
350 1 184 185
351 1 18 19
352 1 19 20
353 1 30 31
354 1 29 30
355 1 173 174
356 1 373 374
357 1 372 373
358 1 370 371
359 1 371 372
360 1 217 218
361 1 218 219
362 1 219 220
363 1 220 221
364 1 383 384
365 1 384 385
366 1 385 386
367 1 386 387
368 1 230 231
369 1 179 180
370 1 181 182
371 1 180 181
372 1 182 183
373 1 20 21
374 1 21 22
375 1 22 23
376 1 28 29
377 1 27 28
378 1 26 27
379 1 175 176
380 1 174 175
381 1 221 222
382 1 222 223
383 1 223 224
384 1 226 227
385 1 374 375
386 1 375 376
387 1 379 380
388 1 378 379
389 1 377 378
390 1 380 381
391 1 381 382
392 1 382 383
393 1 228 229
394 1 227 228
395 1 229 230
396 1 177 178
397 1 23 24
398 1 24 25
399 1 25 26
400 1 176 177
401 1 178 179
402 1 376 377
403 1 224 225
404 1 225 226
