ITEM: TIMESTEP
0
ITEM: NUMBER OF ATOMS
400
ITEM: BOX BOUNDS ff ff ff
-3.7000000000000000e+01 3.7000000000000000e+01
-3.7000000000000000e+01 3.7000000000000000e+01
-3.7000000000000000e+01 3.7000000000000000e+01
ITEM: ATOMS id type x y z
109 1 -7.91605 -12.3333 -30.831
107 1 -5.96453 -12.3333 -31.2672
108 1 -6.94372 -12.3333 -31.0644
105 1 -3.98948 -12.3333 -31.58
106 1 -4.97946 -12.3333 -31.4391
104 1 -2.99556 -12.3333 -31.6897
102 1 -0.999836 -12.3333 -31.8153
103 1 -1.99868 -12.3333 -31.7682
101 1 0 -12.3333 -31.831
99 1 1.99868 -12.3333 -31.7682
100 1 0.999836 -12.3333 -31.8153
98 1 2.99556 -12.3333 -31.6897
96 1 4.97946 -12.3333 -31.4391
97 1 3.98948 -12.3333 -31.58
94 1 6.94372 -12.3333 -31.0644
95 1 5.96453 -12.3333 -31.2672
93 1 7.91605 -12.3333 -30.831
309 2 -7.91605 12.3333 -30.831
307 2 -5.96453 12.3333 -31.2672
308 2 -6.94372 12.3333 -31.0644
305 2 -3.98948 12.3333 -31.58
306 2 -4.97946 12.3333 -31.4391
304 2 -2.99556 12.3333 -31.6897
302 2 -0.999836 12.3333 -31.8153
303 2 -1.99868 12.3333 -31.7682
301 2 0 12.3333 -31.831
299 2 1.99868 12.3333 -31.7682
300 2 0.999836 12.3333 -31.8153
298 2 2.99556 12.3333 -31.6897
296 2 4.97946 12.3333 -31.4391
297 2 3.98948 12.3333 -31.58
294 2 6.94372 12.3333 -31.0644
295 2 5.96453 12.3333 -31.2672
293 2 7.91605 12.3333 -30.831
114 1 -12.6416 -12.3333 -29.213
112 1 -10.7824 -12.3333 -29.9492
113 1 -11.7178 -12.3333 -29.5957
110 1 -8.88056 -12.3333 -30.5671
111 1 -9.83632 -12.3333 -30.2731
91 1 9.83632 -12.3333 -30.2731
92 1 8.88056 -12.3333 -30.5671
89 1 11.7178 -12.3333 -29.5957
90 1 10.7824 -12.3333 -29.9492
88 1 12.6416 -12.3333 -29.213
314 2 -12.6416 12.3333 -29.213
312 2 -10.7824 12.3333 -29.9492
313 2 -11.7178 12.3333 -29.5957
310 2 -8.88056 12.3333 -30.5671
311 2 -9.83632 12.3333 -30.2731
291 2 9.83632 12.3333 -30.2731
292 2 8.88056 12.3333 -30.5671
289 2 11.7178 12.3333 -29.5957
290 2 10.7824 12.3333 -29.9492
288 2 12.6416 12.3333 -29.213
117 1 -15.3347 -12.3333 -27.8937
115 1 -13.553 -12.3333 -28.8015
116 1 -14.451 -12.3333 -28.3616
86 1 14.451 -12.3333 -28.3616
87 1 13.553 -12.3333 -28.8015
85 1 15.3347 -12.3333 -27.8937
317 2 -15.3347 12.3333 -27.8937
315 2 -13.553 12.3333 -28.8015
316 2 -14.451 12.3333 -28.3616
286 2 14.451 12.3333 -28.3616
287 2 13.553 12.3333 -28.8015
285 2 15.3347 12.3333 -27.8937
119 1 -17.0559 -12.3333 -26.8758
120 1 -17.8917 -12.3333 -26.3268
118 1 -16.2033 -12.3333 -27.3983
84 1 16.2033 -12.3333 -27.3983
82 1 17.8917 -12.3333 -26.3268
83 1 17.0559 -12.3333 -26.8758
319 2 -17.0559 12.3333 -26.8758
320 2 -17.8917 12.3333 -26.3268
318 2 -16.2033 12.3333 -27.3983
284 2 16.2033 12.3333 -27.3983
282 2 17.8917 12.3333 -26.3268
283 2 17.0559 12.3333 -26.8758
123 1 -20.2898 -12.3333 -24.5262
121 1 -18.7098 -12.3333 -25.7518
122 1 -19.5094 -12.3333 -25.1514
80 1 19.5094 -12.3333 -25.1514
81 1 18.7098 -12.3333 -25.7518
79 1 20.2898 -12.3333 -24.5262
323 2 -20.2898 12.3333 -24.5262
321 2 -18.7098 12.3333 -25.7518
322 2 -19.5094 12.3333 -25.1514
280 2 19.5094 12.3333 -25.1514
281 2 18.7098 12.3333 -25.7518
279 2 20.2898 12.3333 -24.5262
125 1 -21.7898 -12.3333 -23.2038
124 1 -21.0502 -12.3333 -23.8768
78 1 21.0502 -12.3333 -23.8768
77 1 21.7898 -12.3333 -23.2038
325 2 -21.7898 12.3333 -23.2038
324 2 -21.0502 12.3333 -23.8768
278 2 21.0502 12.3333 -23.8768
277 2 21.7898 12.3333 -23.2038
127 1 -23.2038 -12.3333 -21.7898
126 1 -22.5079 -12.3333 -22.5079
76 1 22.5079 -12.3333 -22.5079
75 1 23.2038 -12.3333 -21.7898
327 2 -23.2038 12.3333 -21.7898
326 2 -22.5079 12.3333 -22.5079
276 2 22.5079 12.3333 -22.5079
275 2 23.2038 12.3333 -21.7898
129 1 -24.5262 -12.3333 -20.2898
128 1 -23.8768 -12.3333 -21.0502
74 1 23.8768 -12.3333 -21.0502
73 1 24.5262 -12.3333 -20.2898
329 2 -24.5262 12.3333 -20.2898
328 2 -23.8768 12.3333 -21.0502
274 2 23.8768 12.3333 -21.0502
273 2 24.5262 12.3333 -20.2898
130 1 -25.1514 -12.3333 -19.5094
131 1 -25.7518 -12.3333 -18.7098
71 1 25.7518 -12.3333 -18.7098
72 1 25.1514 -12.3333 -19.5094
330 2 -25.1514 12.3333 -19.5094
331 2 -25.7518 12.3333 -18.7098
271 2 25.7518 12.3333 -18.7098
272 2 25.1514 12.3333 -19.5094
132 1 -26.3268 -12.3333 -17.8917
133 1 -26.8758 -12.3333 -17.0559
69 1 26.8758 -12.3333 -17.0559
70 1 26.3268 -12.3333 -17.8917
332 2 -26.3268 12.3333 -17.8917
333 2 -26.8758 12.3333 -17.0559
269 2 26.8758 12.3333 -17.0559
270 2 26.3268 12.3333 -17.8917
135 1 -27.8937 -12.3333 -15.3347
134 1 -27.3983 -12.3333 -16.2033
68 1 27.3983 -12.3333 -16.2033
67 1 27.8937 -12.3333 -15.3347
335 2 -27.8937 12.3333 -15.3347
334 2 -27.3983 12.3333 -16.2033
268 2 27.3983 12.3333 -16.2033
267 2 27.8937 12.3333 -15.3347
136 1 -28.3616 -12.3333 -14.451
137 1 -28.8015 -12.3333 -13.553
65 1 28.8015 -12.3333 -13.553
66 1 28.3616 -12.3333 -14.451
336 2 -28.3616 12.3333 -14.451
337 2 -28.8015 12.3333 -13.553
265 2 28.8015 12.3333 -13.553
266 2 28.3616 12.3333 -14.451
138 1 -29.213 -12.3333 -12.6416
64 1 29.213 -12.3333 -12.6416
338 2 -29.213 12.3333 -12.6416
264 2 29.213 12.3333 -12.6416
139 1 -29.5957 -12.3333 -11.7178
140 1 -29.9492 -12.3333 -10.7824
62 1 29.9492 -12.3333 -10.7824
63 1 29.5957 -12.3333 -11.7178
339 2 -29.5957 12.3333 -11.7178
340 2 -29.9492 12.3333 -10.7824
262 2 29.9492 12.3333 -10.7824
263 2 29.5957 12.3333 -11.7178
141 1 -30.2731 -12.3333 -9.83632
142 1 -30.5671 -12.3333 -8.88056
60 1 30.5671 -12.3333 -8.88056
61 1 30.2731 -12.3333 -9.83632
341 2 -30.2731 12.3333 -9.83632
342 2 -30.5671 12.3333 -8.88056
260 2 30.5671 12.3333 -8.88056
261 2 30.2731 12.3333 -9.83632
143 1 -30.831 -12.3333 -7.91605
59 1 30.831 -12.3333 -7.91605
343 2 -30.831 12.3333 -7.91605
259 2 30.831 12.3333 -7.91605
144 1 -31.0644 -12.3333 -6.94372
145 1 -31.2672 -12.3333 -5.96453
57 1 31.2672 -12.3333 -5.96453
58 1 31.0644 -12.3333 -6.94372
344 2 -31.0644 12.3333 -6.94372
345 2 -31.2672 12.3333 -5.96453
257 2 31.2672 12.3333 -5.96453
258 2 31.0644 12.3333 -6.94372
146 1 -31.4391 -12.3333 -4.97946
147 1 -31.58 -12.3333 -3.98948
55 1 31.58 -12.3333 -3.98948
56 1 31.4391 -12.3333 -4.97946
346 2 -31.4391 12.3333 -4.97946
347 2 -31.58 12.3333 -3.98948
255 2 31.58 12.3333 -3.98948
256 2 31.4391 12.3333 -4.97946
148 1 -31.6897 -12.3333 -2.99556
54 1 31.6897 -12.3333 -2.99556
348 2 -31.6897 12.3333 -2.99556
254 2 31.6897 12.3333 -2.99556
149 1 -31.7682 -12.3333 -1.99868
150 1 -31.8153 -12.3333 -0.999836
52 1 31.8153 -12.3333 -0.999836
53 1 31.7682 -12.3333 -1.99868
349 2 -31.7682 12.3333 -1.99868
350 2 -31.8153 12.3333 -0.999836
252 2 31.8153 12.3333 -0.999836
253 2 31.7682 12.3333 -1.99868
151 1 -31.831 -12.3333 -0
51 1 31.831 -12.3333 0
351 2 -31.831 12.3333 -0
251 2 31.831 12.3333 0
152 1 -31.8153 -12.3333 0.999836
153 1 -31.7682 -12.3333 1.99868
49 1 31.7682 -12.3333 1.99868
50 1 31.8153 -12.3333 0.999836
352 2 -31.8153 12.3333 0.999836
353 2 -31.7682 12.3333 1.99868
249 2 31.7682 12.3333 1.99868
250 2 31.8153 12.3333 0.999836
154 1 -31.6897 -12.3333 2.99556
48 1 31.6897 -12.3333 2.99556
354 2 -31.6897 12.3333 2.99556
248 2 31.6897 12.3333 2.99556
155 1 -31.58 -12.3333 3.98948
156 1 -31.4391 -12.3333 4.97946
46 1 31.4391 -12.3333 4.97946
47 1 31.58 -12.3333 3.98948
355 2 -31.58 12.3333 3.98948
356 2 -31.4391 12.3333 4.97946
246 2 31.4391 12.3333 4.97946
247 2 31.58 12.3333 3.98948
157 1 -31.2672 -12.3333 5.96453
158 1 -31.0644 -12.3333 6.94372
44 1 31.0644 -12.3333 6.94372
45 1 31.2672 -12.3333 5.96453
357 2 -31.2672 12.3333 5.96453
358 2 -31.0644 12.3333 6.94372
244 2 31.0644 12.3333 6.94372
245 2 31.2672 12.3333 5.96453
159 1 -30.831 -12.3333 7.91605
43 1 30.831 -12.3333 7.91605
359 2 -30.831 12.3333 7.91605
243 2 30.831 12.3333 7.91605
160 1 -30.5671 -12.3333 8.88056
161 1 -30.2731 -12.3333 9.83632
41 1 30.2731 -12.3333 9.83632
42 1 30.5671 -12.3333 8.88056
360 2 -30.5671 12.3333 8.88056
361 2 -30.2731 12.3333 9.83632
241 2 30.2731 12.3333 9.83632
242 2 30.5671 12.3333 8.88056
162 1 -29.9492 -12.3333 10.7824
163 1 -29.5957 -12.3333 11.7178
39 1 29.5957 -12.3333 11.7178
40 1 29.9492 -12.3333 10.7824
362 2 -29.9492 12.3333 10.7824
363 2 -29.5957 12.3333 11.7178
239 2 29.5957 12.3333 11.7178
240 2 29.9492 12.3333 10.7824
164 1 -29.213 -12.3333 12.6416
38 1 29.213 -12.3333 12.6416
364 2 -29.213 12.3333 12.6416
238 2 29.213 12.3333 12.6416
165 1 -28.8015 -12.3333 13.553
166 1 -28.3616 -12.3333 14.451
36 1 28.3616 -12.3333 14.451
37 1 28.8015 -12.3333 13.553
365 2 -28.8015 12.3333 13.553
366 2 -28.3616 12.3333 14.451
236 2 28.3616 12.3333 14.451
237 2 28.8015 12.3333 13.553
167 1 -27.8937 -12.3333 15.3347
168 1 -27.3983 -12.3333 16.2033
34 1 27.3983 -12.3333 16.2033
35 1 27.8937 -12.3333 15.3347
367 2 -27.8937 12.3333 15.3347
368 2 -27.3983 12.3333 16.2033
234 2 27.3983 12.3333 16.2033
235 2 27.8937 12.3333 15.3347
169 1 -26.8758 -12.3333 17.0559
170 1 -26.3268 -12.3333 17.8917
32 1 26.3268 -12.3333 17.8917
33 1 26.8758 -12.3333 17.0559
369 2 -26.8758 12.3333 17.0559
370 2 -26.3268 12.3333 17.8917
232 2 26.3268 12.3333 17.8917
233 2 26.8758 12.3333 17.0559
171 1 -25.7518 -12.3333 18.7098
172 1 -25.1514 -12.3333 19.5094
30 1 25.1514 -12.3333 19.5094
31 1 25.7518 -12.3333 18.7098
371 2 -25.7518 12.3333 18.7098
372 2 -25.1514 12.3333 19.5094
230 2 25.1514 12.3333 19.5094
231 2 25.7518 12.3333 18.7098
173 1 -24.5262 -12.3333 20.2898
174 1 -23.8768 -12.3333 21.0502
28 1 23.8768 -12.3333 21.0502
29 1 24.5262 -12.3333 20.2898
373 2 -24.5262 12.3333 20.2898
374 2 -23.8768 12.3333 21.0502
228 2 23.8768 12.3333 21.0502
229 2 24.5262 12.3333 20.2898
175 1 -23.2038 -12.3333 21.7898
176 1 -22.5079 -12.3333 22.5079
26 1 22.5079 -12.3333 22.5079
27 1 23.2038 -12.3333 21.7898
375 2 -23.2038 12.3333 21.7898
376 2 -22.5079 12.3333 22.5079
226 2 22.5079 12.3333 22.5079
227 2 23.2038 12.3333 21.7898
177 1 -21.7898 -12.3333 23.2038
178 1 -21.0502 -12.3333 23.8768
24 1 21.0502 -12.3333 23.8768
25 1 21.7898 -12.3333 23.2038
377 2 -21.7898 12.3333 23.2038
378 2 -21.0502 12.3333 23.8768
224 2 21.0502 12.3333 23.8768
225 2 21.7898 12.3333 23.2038
179 1 -20.2898 -12.3333 24.5262
180 1 -19.5094 -12.3333 25.1514
181 1 -18.7098 -12.3333 25.7518
21 1 18.7098 -12.3333 25.7518
22 1 19.5094 -12.3333 25.1514
23 1 20.2898 -12.3333 24.5262
379 2 -20.2898 12.3333 24.5262
380 2 -19.5094 12.3333 25.1514
381 2 -18.7098 12.3333 25.7518
221 2 18.7098 12.3333 25.7518
222 2 19.5094 12.3333 25.1514
223 2 20.2898 12.3333 24.5262
182 1 -17.8917 -12.3333 26.3268
183 1 -17.0559 -12.3333 26.8758
184 1 -16.2033 -12.3333 27.3983
18 1 16.2033 -12.3333 27.3983
19 1 17.0559 -12.3333 26.8758
20 1 17.8917 -12.3333 26.3268
382 2 -17.8917 12.3333 26.3268
383 2 -17.0559 12.3333 26.8758
384 2 -16.2033 12.3333 27.3983
218 2 16.2033 12.3333 27.3983
219 2 17.0559 12.3333 26.8758
220 2 17.8917 12.3333 26.3268
185 1 -15.3347 -12.3333 27.8937
186 1 -14.451 -12.3333 28.3616
187 1 -13.553 -12.3333 28.8015
15 1 13.553 -12.3333 28.8015
16 1 14.451 -12.3333 28.3616
17 1 15.3347 -12.3333 27.8937
385 2 -15.3347 12.3333 27.8937
386 2 -14.451 12.3333 28.3616
387 2 -13.553 12.3333 28.8015
215 2 13.553 12.3333 28.8015
216 2 14.451 12.3333 28.3616
217 2 15.3347 12.3333 27.8937
188 1 -12.6416 -12.3333 29.213
189 1 -11.7178 -12.3333 29.5957
190 1 -10.7824 -12.3333 29.9492
191 1 -9.83632 -12.3333 30.2731
192 1 -8.88056 -12.3333 30.5671
10 1 8.88056 -12.3333 30.5671
11 1 9.83632 -12.3333 30.2731
12 1 10.7824 -12.3333 29.9492
13 1 11.7178 -12.3333 29.5957
14 1 12.6416 -12.3333 29.213
388 2 -12.6416 12.3333 29.213
389 2 -11.7178 12.3333 29.5957
390 2 -10.7824 12.3333 29.9492
391 2 -9.83632 12.3333 30.2731
392 2 -8.88056 12.3333 30.5671
210 2 8.88056 12.3333 30.5671
211 2 9.83632 12.3333 30.2731
212 2 10.7824 12.3333 29.9492
213 2 11.7178 12.3333 29.5957
214 2 12.6416 12.3333 29.213
193 1 -7.91605 -12.3333 30.831
194 1 -6.94372 -12.3333 31.0644
195 1 -5.96453 -12.3333 31.2672
196 1 -4.97946 -12.3333 31.4391
197 1 -3.98948 -12.3333 31.58
198 1 -2.99556 -12.3333 31.6897
199 1 -1.99868 -12.3333 31.7682
200 1 -0.999836 -12.3333 31.8153
1 1 0 -12.3333 31.831
2 1 0.999836 -12.3333 31.8153
3 1 1.99868 -12.3333 31.7682
4 1 2.99556 -12.3333 31.6897
5 1 3.98948 -12.3333 31.58
6 1 4.97946 -12.3333 31.4391
7 1 5.96453 -12.3333 31.2672
8 1 6.94372 -12.3333 31.0644
9 1 7.91605 -12.3333 30.831
393 2 -7.91605 12.3333 30.831
394 2 -6.94372 12.3333 31.0644
395 2 -5.96453 12.3333 31.2672
396 2 -4.97946 12.3333 31.4391
397 2 -3.98948 12.3333 31.58
398 2 -2.99556 12.3333 31.6897
399 2 -1.99868 12.3333 31.7682
400 2 -0.999836 12.3333 31.8153
201 2 0 12.3333 31.831
202 2 0.999836 12.3333 31.8153
203 2 1.99868 12.3333 31.7682
204 2 2.99556 12.3333 31.6897
205 2 3.98948 12.3333 31.58
206 2 4.97946 12.3333 31.4391
207 2 5.96453 12.3333 31.2672
208 2 6.94372 12.3333 31.0644
209 2 7.91605 12.3333 30.831
ITEM: TIMESTEP
1000
ITEM: NUMBER OF ATOMS
400
ITEM: BOX BOUNDS ff ff ff
-3.7000000000000000e+01 3.7000000000000000e+01
-3.7000000000000000e+01 3.7000000000000000e+01
-3.7000000000000000e+01 3.7000000000000000e+01
ITEM: ATOMS id type x y z
104 1 -2.75609 -11.8275 -31.4288
102 1 -0.859249 -12.287 -31.8084
103 1 -1.87603 -12.418 -31.5978
101 1 0.130261 -12.4316 -32.0245
99 1 2.14889 -12.5373 -32.0497
100 1 1.13542 -12.5374 -31.931
98 1 3.19633 -12.5974 -32.1204
96 1 5.21974 -12.661 -31.8172
97 1 4.23085 -12.5237 -31.8577
95 1 6.13242 -12.4424 -31.4183
94 1 7.17425 -12.4976 -31.3594
93 1 8.06368 -12.2509 -30.9323
91 1 10.0505 -12.3466 -30.7512
92 1 9.0514 -12.3397 -31.0868
109 1 -7.55679 -11.6559 -30.7653
107 1 -5.72046 -11.3704 -31.0909
108 1 -6.72207 -11.6214 -31.2178
106 1 -4.76199 -11.605 -31.5248
105 1 -3.80398 -11.7628 -31.2718
304 2 -3.25033 11.7856 -31.9714
298 2 2.67642 11.5698 -31.9723
297 2 3.70123 11.2766 -32.0738
296 2 4.60302 11.4856 -31.6506
294 2 6.61994 11.6468 -31.3042
295 2 5.56764 11.7882 -31.2955
293 2 7.66741 11.7542 -31.4258
292 2 8.68193 11.7419 -31.1327
307 2 -6.03437 12.5172 -31.3045
308 2 -6.84074 12.4721 -30.7169
305 2 -4.08684 12.3853 -31.9809
306 2 -5.02408 12.4635 -31.4893
302 2 -1.23143 12.3682 -31.8872
303 2 -2.26143 12.1142 -31.9205
301 2 -0.238523 12.4822 -31.7844
299 2 1.75568 12.0328 -31.9346
300 2 0.804913 12.4633 -32.0474
291 2 9.35732 12.4085 -30.721
114 1 -12.3177 -11.929 -29.4717
115 1 -13.2781 -12.0435 -29.1476
90 1 10.9406 -12.1603 -30.2865
89 1 11.8497 -12.082 -29.9438
112 1 -10.464 -11.361 -29.8787
113 1 -11.4573 -11.6176 -29.9138
111 1 -9.43035 -11.5896 -29.9695
110 1 -8.5035 -11.4345 -30.3992
88 1 12.7011 -11.6432 -29.5885
87 1 13.7198 -11.5427 -29.4666
315 2 -13.5111 12.656 -29.3066
314 2 -12.6377 12.8255 -29.8034
312 2 -10.7551 12.9355 -30.1634
313 2 -11.7962 12.8754 -30.3631
310 2 -8.76862 12.9623 -30.4667
311 2 -9.78423 12.9705 -30.3908
309 2 -7.74038 12.8511 -30.4534
289 2 11.3417 12.8885 -30.2204
290 2 10.354 12.64 -30.3992
288 2 12.2808 12.8834 -29.7013
287 2 13.3513 12.8598 -29.5502
117 1 -15.009 -11.9521 -28.1275
116 1 -14.1833 -11.8837 -28.6411
86 1 14.5678 -11.9257 -28.8853
85 1 15.2313 -12.215 -28.2305
84 1 16.224 -12.2699 -27.8704
317 2 -15.1006 12.641 -28.2078
316 2 -14.4827 12.5722 -29.0044
286 2 14.2426 12.9332 -29.0901
285 2 14.9878 13.2144 -28.4264
284 2 15.8027 12.9489 -27.8171
119 1 -16.7577 -12.3865 -26.9145
120 1 -17.6093 -12.5876 -26.4378
118 1 -15.8952 -12.1232 -27.5318
82 1 18.0072 -12.2471 -26.9564
83 1 17.1072 -12.4657 -27.5011
81 1 18.7518 -12.1862 -26.1925
319 2 -16.5859 12.0976 -26.8524
320 2 -17.4656 12.1198 -26.2597
318 2 -15.8111 12.3421 -27.5166
282 2 17.6106 12.9039 -26.8698
283 2 16.7138 12.7794 -27.3219
281 2 18.584 12.9451 -26.4371
123 1 -20.2796 -12.2961 -24.7862
121 1 -18.4621 -12.485 -25.8465
122 1 -19.4295 -12.4874 -25.3862
80 1 19.4852 -12.2105 -25.4368
79 1 20.1919 -12.1834 -24.6209
321 2 -18.2259 12.3171 -25.6046
322 2 -19.0242 12.0351 -24.9091
280 2 19.3428 12.6363 -25.6107
279 2 20.0797 12.4639 -24.8214
125 1 -21.886 -12.3193 -23.3716
124 1 -21.0184 -12.2815 -24.021
78 1 20.9245 -12.1054 -23.8814
77 1 21.5847 -12.5247 -23.1878
325 2 -21.6013 11.8157 -23.1204
323 2 -19.8316 11.9668 -24.2557
324 2 -20.8302 11.9546 -23.7918
278 2 20.9163 12.5636 -24.238
277 2 21.6011 12.6567 -23.3347
127 1 -23.4172 -12.05 -21.8181
126 1 -22.6502 -12.1043 -22.553
76 1 22.409 -12.7319 -22.4797
75 1 23.1359 -12.5878 -21.7206
327 2 -22.9488 12.0348 -21.5131
326 2 -22.1857 12.0263 -22.2604
276 2 22.2692 12.6453 -22.5931
275 2 23.1134 12.4685 -21.9317
129 1 -24.7555 -11.9381 -20.191
128 1 -24.1771 -11.9132 -21.0866
74 1 23.7527 -12.2188 -20.9354
73 1 24.3748 -12.2465 -20.0608
329 2 -24.2158 12.2083 -19.8031
328 2 -23.7239 12.096 -20.8135
274 2 23.7625 12.4327 -21.1411
273 2 24.4795 12.5555 -20.3105
130 1 -25.3791 -11.9652 -19.3504
131 1 -25.9172 -12.0093 -18.4417
71 1 25.6503 -12.1973 -18.2976
72 1 25.0762 -12.329 -19.1958
330 2 -24.7594 12.1544 -18.8089
271 2 25.4191 12.4312 -18.3091
272 2 24.9952 12.4553 -19.3649
132 1 -26.2206 -12.1371 -17.4026
70 1 26.1506 -12.1528 -17.2886
331 2 -25.4006 12.1557 -17.8855
332 2 -25.8692 12.1141 -16.8894
270 2 25.9446 12.3444 -17.3491
133 1 -26.5263 -12.2383 -16.3265
134 1 -26.8785 -12.2721 -15.2293
69 1 26.5763 -12.3111 -16.2724
68 1 26.9535 -12.2371 -15.2155
333 2 -26.3018 12.162 -15.8323
269 2 26.4462 12.1961 -16.3952
268 2 26.8278 11.9941 -15.3258
135 1 -27.265 -12.2067 -14.1049
67 1 27.2939 -12.3471 -14.0727
335 2 -27.0891 12.1981 -13.7003
334 2 -26.6753 12.0137 -14.7437
267 2 27.3489 11.8321 -14.3126
136 1 -27.6523 -12.1771 -13.0497
137 1 -27.8024 -12.169 -11.8109
66 1 27.4743 -12.4324 -12.8786
266 2 27.6123 11.793 -13.1292
336 2 -27.4065 12.2744 -12.5692
265 2 27.8385 11.9041 -12.0221
138 1 -27.8838 -12.1705 -10.5244
65 1 27.7703 -12.5711 -11.7822
64 1 27.937 -12.5195 -10.5754
337 2 -27.5523 12.4202 -11.4188
264 2 28.0502 11.9647 -10.8422
139 1 -28.0326 -12.2438 -9.26467
63 1 28.0506 -12.5708 -9.30231
338 2 -27.5857 12.5252 -10.1621
339 2 -27.6601 12.6142 -8.87939
263 2 28.1805 11.9237 -9.60777
140 1 -28.0265 -12.1714 -7.88104
62 1 28.0719 -12.7418 -8.0446
340 2 -27.5558 12.6556 -7.63111
262 2 28.1835 11.8198 -8.2873
141 1 -28.0088 -12.2285 -6.55015
61 1 28.0388 -12.6959 -6.69515
260 2 28.0672 11.7332 -5.57843
261 2 28.1201 11.7441 -6.97514
341 2 -27.3346 12.7215 -6.27976
142 1 -27.7879 -12.1886 -5.13288
60 1 27.877 -12.6757 -5.31434
342 2 -27.1434 12.6745 -4.9106
259 2 27.852 11.8573 -4.18351
143 1 -27.4471 -12.1068 -3.66048
59 1 27.7158 -12.6979 -3.82988
258 2 27.2949 11.7046 -2.70369
343 2 -26.7215 12.6197 -3.46816
144 1 -26.9462 -11.9987 -2.2798
145 1 -26.3151 -11.8548 -0.819193
57 1 26.931 -12.7305 -0.897456
58 1 27.3538 -12.7031 -2.34462
257 2 26.8105 11.5717 -1.21025
344 2 -26.1991 12.6292 -2.05829
56 1 26.2625 -12.776 0.561511
146 1 -25.5968 -11.6981 0.780271
256 2 26.1999 11.4827 0.272775
345 2 -25.542 12.721 -0.489333
55 1 25.5727 -12.7764 2.10498
255 2 25.3694 11.5203 1.83388
346 2 -24.7709 12.6791 1.16292
54 1 24.7464 -12.8665 3.77034
147 1 -24.7857 -11.6261 2.41776
254 2 24.5248 11.5244 3.56326
347 2 -23.8866 12.6706 2.83683
148 1 -23.6138 -11.6313 4.09715
253 2 23.4397 11.3513 5.26062
348 2 -22.9651 12.5524 4.53294
158 1 -29.1287 -12.1576 6.41323
157 1 -27.9912 -11.8539 6.23745
156 1 -26.7118 -11.868 6.62093
155 1 -25.4774 -11.9761 6.94673
53 1 23.7544 -12.8091 5.58111
149 1 -22.3623 -11.4925 5.84127
252 2 21.8442 11.0656 6.98096
358 2 -28.5585 12.5853 6.86847
356 2 -26.2168 12.6064 6.60462
357 2 -27.5271 12.5975 6.57829
355 2 -25.0153 12.538 6.86515
349 2 -21.6112 12.617 6.16014
159 1 -29.599 -12.3345 7.26282
160 1 -29.8878 -12.3802 8.34356
153 1 -22.4531 -11.8566 7.91004
52 1 22.1744 -12.8652 7.30147
47 1 23.8745 -12.1491 8.59859
46 1 25.2105 -12.2322 8.1203
45 1 26.5723 -12.2013 7.75327
44 1 27.7397 -12.1617 7.33772
43 1 28.7282 -12.0612 7.67035
42 1 29.5335 -11.8229 8.32435
154 1 -24.157 -11.7494 7.38319
150 1 -20.2847 -11.6264 7.76213
246 2 24.6538 11.5423 8.35447
245 2 26.0685 11.6374 7.92258
359 2 -29.6101 12.4848 7.10629
360 2 -29.6382 12.7144 8.13132
354 2 -23.4816 12.4666 7.44342
353 2 -21.7923 12.3778 8.09059
350 2 -19.6889 12.6853 8.19443
244 2 27.1788 11.9353 7.63952
243 2 28.3104 11.9207 7.74371
242 2 29.1853 12.1629 8.23925
161 1 -30.341 -12.1451 9.21641
162 1 -30.1524 -12.3844 10.1988
152 1 -20.2649 -11.8933 8.90882
151 1 -17.8195 -12.0502 9.97189
51 1 20.4883 -12.961 9.12071
49 1 21.0212 -12.0712 10.0271
48 1 22.5151 -12.1366 9.20193
41 1 29.8418 -12.0175 9.32103
251 2 19.612 11.1647 9.01451
249 2 19.1439 11.5075 9.70188
248 2 21.3549 11.4768 9.22046
247 2 23.1028 11.6235 8.66553
361 2 -29.9529 12.5464 9.08928
362 2 -30.0352 12.4541 10.1951
352 2 -19.9382 12.1212 8.86797
241 2 29.4603 12.5362 9.18392
240 2 29.3229 12.5965 10.195
163 1 -29.5925 -12.3006 11.0506
50 1 16.9706 -12.0862 11.5554
39 1 29.4488 -12.2399 11.344
40 1 29.4407 -12.1683 10.3112
250 2 16.4936 11.2003 11.1427
363 2 -29.4229 12.2925 11.0089
351 2 -17.279 12.1841 10.2468
239 2 28.9815 12.6047 11.1578
164 1 -29.2757 -12.266 12.0483
165 1 -28.7379 -12.3233 12.951
37 1 28.6652 -12.0384 13.1694
38 1 29.3325 -12.0297 12.3484
364 2 -28.9795 11.8896 11.8751
365 2 -28.3426 12.275 12.6135
238 2 28.8025 12.4704 12.1879
237 2 28.675 12.2464 13.1557
166 1 -28.4207 -12.5299 13.9071
167 1 -27.8142 -12.6693 14.6918
200 1 -6.40993 -11.8406 13.8004
1 1 5.86263 -12.1239 14.6426
36 1 28.2909 -12.3902 14.0744
35 1 28.0446 -11.8603 14.9337
366 2 -28.1234 12.0031 13.5538
367 2 -27.6773 12.2654 14.3845
236 2 28.0214 12.2013 13.9652
168 1 -27.1346 -12.4039 15.4291
169 1 -26.6633 -12.5084 16.3496
34 1 27.579 -12.2349 15.8239
201 2 5.95333 11.6741 15.2509
368 2 -27.2022 11.9671 15.2705
369 2 -26.5201 12.3753 15.8784
400 2 -6.37167 11.8934 16.2341
234 2 27.4985 12.0122 15.8897
235 2 27.8119 12.1515 14.9816
170 1 -26.1891 -12.1565 17.1957
171 1 -25.4279 -11.9969 17.8949
199 1 -6.95548 -12.0018 17.0603
2 1 6.1108 -12.2384 17.8153
32 1 26.3108 -12.0894 17.4131
33 1 26.9911 -12.252 16.6523
202 2 6.26236 11.748 17.8664
370 2 -25.8098 12.2206 16.5428
371 2 -25.284 12.6017 17.3193
232 2 26.5031 12.3467 17.6376
233 2 26.9476 11.9825 16.8127
172 1 -25.0423 -11.995 18.8749
198 1 -7.04356 -11.9911 19.334
30 1 24.9032 -11.8805 18.7572
31 1 25.7749 -12.2733 18.2472
29 1 24.1553 -11.6074 19.3793
372 2 -24.7828 12.6715 18.1848
373 2 -24.0013 12.448 18.895
399 2 -6.50954 11.9615 18.4307
230 2 25.0411 12.5001 19.0489
231 2 25.8431 12.547 18.4108
173 1 -24.3935 -11.9059 19.7
174 1 -23.6944 -11.9749 20.3575
197 1 -7.36876 -11.8611 21.2405
3 1 6.19498 -12.414 19.9812
28 1 23.494 -11.8269 20.237
27 1 22.959 -11.9213 21.0962
374 2 -23.5194 12.8618 19.7094
375 2 -22.9362 12.9116 20.5673
376 2 -22.0982 12.906 21.2179
398 2 -6.53844 11.9293 20.4261
203 2 6.59549 11.8263 20.006
228 2 23.6576 12.0846 20.5143
227 2 23.1406 12.5342 21.2442
229 2 24.4716 12.263 19.9277
175 1 -23.2206 -11.9029 21.2708
176 1 -22.377 -11.8689 21.915
177 1 -21.6999 -12.2905 22.6077
4 1 6.35778 -12.3263 21.8069
26 1 22.0991 -12.2067 21.6553
25 1 21.5487 -12.7074 22.2992
377 2 -21.439 12.7705 22.0312
397 2 -6.76766 11.8108 22.2894
204 2 6.58619 11.8595 21.6369
226 2 22.3676 12.611 21.9624
225 2 21.5919 12.7398 22.6207
178 1 -20.9068 -12.3158 23.2758
179 1 -20.0559 -12.4671 23.8465
5 1 6.42509 -12.3958 23.5893
22 1 19.2926 -12.8531 24.3944
24 1 20.9468 -12.8204 23.1041
23 1 20.1093 -12.8088 23.7567
196 1 -7.53154 -11.7573 22.9017
378 2 -20.9516 12.9014 22.9187
379 2 -20.1186 12.4057 23.434
380 2 -19.2922 12.7025 23.945
396 2 -6.97308 11.8388 23.6448
205 2 6.5554 11.9844 23.2483
222 2 19.1535 12.6816 24.3955
224 2 20.7108 12.7556 23.1056
223 2 19.9322 12.5163 23.7302
180 1 -19.3018 -12.5162 24.53
181 1 -18.421 -12.245 25.0744
182 1 -17.5927 -12.3339 25.7431
195 1 -7.67775 -11.8579 24.4695
6 1 6.33548 -12.431 25.0334
20 1 17.5704 -12.8907 25.5066
21 1 18.4323 -12.8907 24.9984
194 1 -7.98732 -11.7796 25.5887
381 2 -18.5937 12.8707 24.6465
382 2 -17.9041 12.9817 25.3986
395 2 -6.98473 11.89 24.9946
206 2 6.64245 11.9806 24.6166
219 2 16.8067 12.4738 25.7204
220 2 17.682 12.0645 25.5891
221 2 18.3565 12.4657 24.9399
183 1 -16.6237 -12.2037 26.1233
184 1 -15.9066 -12.1796 26.7783
185 1 -15.3727 -12.6971 27.4486
186 1 -14.3748 -12.6281 27.5458
7 1 6.63201 -12.1844 26.4168
8 1 7.08188 -12.2109 27.5005
18 1 16.0655 -12.8022 26.9173
17 1 15.0703 -12.997 27.0388
19 1 16.8162 -12.9187 26.2398
193 1 -8.24023 -11.7192 26.7558
393 2 -7.92475 11.808 27.1633
383 2 -17.1227 12.6103 26.0176
384 2 -16.3138 12.4953 26.7522
385 2 -15.3911 12.6504 27.2271
394 2 -7.25432 11.9765 26.2524
207 2 7.04126 11.877 26.0028
208 2 7.34978 12.0892 27.2485
216 2 14.2386 12.0851 27.2289
218 2 16.0608 12.2713 26.3733
217 2 15.2282 12.1036 26.9489
187 1 -13.5594 -12.5927 28.3003
188 1 -12.6259 -12.4703 28.7679
189 1 -11.61 -12.5647 28.9937
190 1 -10.5902 -12.3695 28.8
191 1 -9.66771 -11.9952 28.4075
192 1 -8.88752 -11.8221 27.6247
10 1 8.60463 -12.1482 28.667
9 1 7.68511 -12.3903 28.3687
11 1 9.59117 -12.2949 28.5236
12 1 10.6292 -12.0653 28.6769
13 1 11.644 -12.0026 28.4736
14 1 12.5134 -12.3789 28.1946
15 1 13.4411 -12.7297 28.0853
16 1 14.4295 -12.9283 27.8399
386 2 -14.4789 12.4544 27.6
387 2 -13.6177 12.1517 27.9393
388 2 -12.5984 12.0059 28.319
389 2 -11.6213 12.1003 28.449
390 2 -10.5872 11.994 28.6171
391 2 -9.52639 11.9219 28.5469
392 2 -8.61969 11.8433 28.1055
209 2 7.93122 12.1871 28.2609
210 2 8.92454 12.0607 28.7799
213 2 11.7284 12.0638 28.9557
215 2 13.3034 12.0811 27.7173
214 2 12.4621 12.1944 28.2831
211 2 9.89308 11.9238 29.1559
212 2 10.8658 11.9484 29.5357
ITEM: TIMESTEP
2000
ITEM: NUMBER OF ATOMS
400
ITEM: BOX BOUNDS ff ff ff
-3.7000000000000000e+01 3.7000000000000000e+01
-3.7000000000000000e+01 3.7000000000000000e+01
-3.7000000000000000e+01 3.7000000000000000e+01
ITEM: ATOMS id type x y z
299 2 1.79143 11.9991 -32.2776
298 2 2.79408 12.2302 -32.3133
107 1 -5.73776 -11.9969 -31.3065
104 1 -3.04818 -12.573 -31.9911
105 1 -3.91424 -12.1218 -31.7298
102 1 -1.00397 -12.7936 -31.8927
103 1 -2.04145 -12.7078 -31.955
101 1 0.0181121 -12.9239 -32.0744
99 1 1.99024 -12.5348 -32.1349
100 1 0.999147 -12.7195 -31.8608
98 1 2.98103 -12.3796 -31.9387
96 1 4.94901 -12.2027 -31.4755
97 1 4.01473 -12.451 -31.7927
95 1 5.78923 -12.285 -30.8971
94 1 6.80869 -12.144 -30.9652
93 1 7.83618 -12.0107 -30.8619
106 1 -4.76044 -11.7436 -31.3366
305 2 -3.95228 12.7428 -30.9462
306 2 -4.96991 12.6365 -30.9437
304 2 -3.12814 12.2764 -31.3381
302 2 -1.1827 12.2851 -31.4725
303 2 -2.18787 12.3163 -31.6369
301 2 -0.231913 12.1749 -31.7965
300 2 0.809515 12.0083 -31.9314
297 2 3.82543 12.4102 -32.2423
296 2 4.80931 12.1958 -31.9293
294 2 6.85384 11.9372 -31.649
295 2 5.81464 11.9763 -31.7432
293 2 7.85398 11.8781 -31.3316
112 1 -10.6687 -11.9623 -29.8312
113 1 -11.6135 -12.0695 -29.4451
109 1 -7.63562 -12.1594 -30.3769
110 1 -8.65941 -11.8979 -30.1874
108 1 -6.60381 -12.1141 -30.6446
92 1 8.88531 -12.0871 -30.6121
89 1 11.7189 -11.9908 -29.6521
111 1 -9.64477 -11.7016 -30.0783
91 1 9.79619 -11.7067 -30.3357
90 1 10.7339 -11.8008 -29.8653
313 2 -11.8933 12.5721 -29.5002
312 2 -10.9125 12.5643 -29.8278
310 2 -9.00455 12.4522 -30.0965
311 2 -9.99928 12.5506 -30.3864
309 2 -7.93496 12.5929 -30.2743
307 2 -5.99598 12.6551 -30.6933
308 2 -7.01811 12.3854 -30.6536
292 2 8.66185 11.9816 -30.6241
291 2 9.66379 12.0413 -30.3616
289 2 11.5078 12.2884 -29.4392
290 2 10.5619 12.2305 -29.8838
288 2 12.4854 12.097 -29.3157
115 1 -13.5225 -11.8283 -28.4908
116 1 -14.4862 -12.0179 -28.0766
114 1 -12.5948 -11.928 -29.041
88 1 12.5489 -12.0263 -29.0546
87 1 13.4797 -12.0307 -28.4853
86 1 14.4043 -12.3362 -28.1708
85 1 15.3244 -12.297 -27.6669
317 2 -15.4537 12.2753 -27.5855
315 2 -13.6053 12.3395 -28.4437
316 2 -14.487 12.3628 -27.8892
314 2 -12.702 12.5373 -28.9291
287 2 13.3973 12.043 -28.7621
286 2 14.0776 11.8939 -28.0109
119 1 -16.9695 -12.0298 -26.1815
117 1 -15.2974 -12.0271 -27.4101
118 1 -16.1926 -11.8444 -26.9199
84 1 16.2282 -12.3403 -27.0006
83 1 17.094 -12.2832 -26.3535
318 2 -16.1061 12.0241 -26.8283
285 2 14.9431 11.907 -27.4671
284 2 15.9411 12.0397 -27.0981
283 2 16.8092 12.1304 -26.5089
121 1 -18.5747 -12.1078 -24.7715
120 1 -17.808 -12.1779 -25.4905
82 1 17.843 -12.1558 -25.5523
81 1 18.6137 -12.2315 -24.8315
319 2 -16.7387 11.9713 -25.9705
320 2 -17.5674 12.1506 -25.3494
282 2 17.5793 12.2206 -25.7382
281 2 18.3999 12.1388 -25.0679
123 1 -20.0379 -12.1404 -23.1896
122 1 -19.347 -12.064 -24.0089
80 1 19.4209 -12.3283 -24.0828
79 1 20.027 -12.3168 -23.2084
322 2 -18.6903 12.2388 -23.4981
321 2 -18.0413 12.2041 -24.3845
280 2 19.1112 12.269 -24.294
279 2 19.8324 12.224 -23.4048
124 1 -20.684 -12.1996 -22.2892
78 1 20.6961 -12.5033 -22.3868
77 1 21.3388 -12.5271 -21.4873
324 2 -20.0463 12.2831 -21.7488
323 2 -19.3997 12.2906 -22.6366
278 2 20.3417 12.1937 -22.4146
277 2 20.8593 12.1276 -21.4301
126 1 -21.7571 -12.1394 -20.2904
125 1 -21.1321 -12.1549 -21.2411
76 1 21.8542 -12.4427 -20.5128
325 2 -20.674 12.2064 -20.8595
326 2 -21.0431 12.1984 -19.8202
276 2 21.4882 12.2373 -20.4927
127 1 -22.1868 -12.1534 -19.2833
128 1 -22.6741 -11.973 -18.2541
75 1 22.3317 -12.5063 -19.4702
74 1 22.8919 -12.5443 -18.4921
327 2 -21.6402 12.0625 -18.9065
275 2 21.8574 12.2604 -19.4535
274 2 22.3956 11.9864 -18.4661
129 1 -23.0964 -12.0348 -17.1853
73 1 23.3761 -12.5655 -17.4244
329 2 -22.3004 12.25 -16.8153
328 2 -22.0445 12.2325 -17.8765
273 2 22.8824 12.0552 -17.4218
130 1 -23.3246 -11.9893 -16.0927
71 1 23.9824 -12.5726 -15.228
72 1 23.7627 -12.5896 -16.302
330 2 -22.5907 12.2528 -15.7181
271 2 23.4289 11.9603 -15.2149
272 2 23.0904 11.9157 -16.294
131 1 -23.4876 -12.019 -14.8951
132 1 -23.56 -12.0378 -13.7379
70 1 24.0093 -12.5647 -14.0203
331 2 -22.6328 12.3626 -14.4962
270 2 23.5594 11.9726 -14.0113
133 1 -23.5714 -11.9754 -12.5295
69 1 24.1966 -12.6158 -12.7904
332 2 -22.896 12.2959 -13.3237
333 2 -22.958 12.2693 -12.1375
269 2 23.6151 11.9514 -12.7746
134 1 -23.6073 -11.9065 -11.3323
68 1 24.2606 -12.6324 -11.5525
334 2 -22.8906 12.3311 -10.9457
268 2 23.6617 11.9296 -11.5519
267 2 23.5953 11.9472 -10.3664
135 1 -23.4942 -11.9759 -10.0328
136 1 -23.1932 -11.886 -8.80352
67 1 24.2573 -12.6449 -10.2295
66 1 23.9014 -12.5317 -9.02307
335 2 -22.6945 12.4098 -9.69925
266 2 23.481 11.8564 -9.13369
137 1 -23.0044 -11.861 -7.509
65 1 23.5228 -12.4734 -7.74483
265 2 23.1944 11.804 -7.84429
336 2 -22.3592 12.4058 -8.43036
337 2 -21.9036 12.335 -7.13318
138 1 -22.6104 -11.9152 -6.23991
64 1 23.228 -12.4593 -6.45236
264 2 22.8274 11.7825 -6.53115
338 2 -21.3437 12.4361 -5.96077
63 1 22.5664 -12.425 -5.17337
62 1 21.7812 -12.4577 -3.97466
139 1 -22.0926 -11.75 -4.89067
339 2 -20.7396 12.3841 -4.71236
263 2 22.5611 11.8973 -5.1928
262 2 22.0036 11.9558 -3.97552
61 1 21.1366 -12.523 -2.62403
140 1 -21.3956 -11.7735 -3.51465
340 2 -20.0817 12.4099 -3.39182
261 2 21.2389 11.8539 -2.68732
142 1 -19.4583 -11.8232 -0.969203
60 1 20.2788 -12.5641 -1.34172
141 1 -20.5682 -11.777 -2.21294
341 2 -19.2647 12.4891 -2.04467
260 2 20.3203 11.89 -1.46878
143 1 -18.4203 -11.8952 0.252151
59 1 19.1816 -12.5007 -0.148553
342 2 -18.3787 12.4592 -0.759629
343 2 -17.3937 12.4545 0.532785
259 2 19.1133 11.8966 -0.22967
144 1 -17.3077 -11.8607 1.60432
57 1 16.8316 -12.7137 2.30644
58 1 18.0891 -12.6162 1.11262
257 2 16.764 11.8052 2.29502
344 2 -16.1652 12.3743 1.75645
258 2 18.0076 11.8843 1.07369
145 1 -16.0318 -11.9454 2.83752
56 1 15.303 -12.5804 3.4847
256 2 15.3786 11.6958 3.36605
345 2 -14.8147 12.3681 2.91445
146 1 -14.3528 -11.9487 3.99149
147 1 -12.6625 -11.986 5.00057
55 1 13.8031 -12.4076 4.61887
254 2 12.1517 11.5846 5.38243
255 2 13.7448 11.6211 4.31187
346 2 -13.388 12.4712 3.97553
347 2 -11.8358 12.3104 5.04101
148 1 -10.8661 -11.9747 6.09884
53 1 10.5439 -12.3568 6.74216
54 1 12.2458 -12.3489 5.66811
253 2 10.4855 11.5549 6.45634
348 2 -10.2248 12.2883 6.23044
149 1 -9.0325 -12.0302 7.10772
150 1 -7.09059 -12.1049 8.17709
52 1 8.71067 -12.344 7.74447
251 2 6.64453 11.7702 8.39419
252 2 8.54024 11.6725 7.43663
349 2 -8.45872 12.1746 7.27928
350 2 -6.66823 12.0681 8.2823
161 1 -22.4964 -12.5372 9.95286
160 1 -21.0738 -12.4892 9.78461
159 1 -19.5599 -12.3671 9.65382
158 1 -17.9524 -12.2589 9.62488
157 1 -16.2921 -12.2298 9.5636
156 1 -14.5603 -12.2483 9.45548
155 1 -12.8418 -12.2266 9.50686
154 1 -11.0302 -12.1072 9.40634
153 1 -9.02961 -12.1118 9.36586
152 1 -7.07665 -12.1322 9.32422
151 1 -5.08169 -12.0759 9.25753
200 1 -1.78126 -12.1015 10.036
1 1 1.76098 -12.0958 10.1088
50 1 4.99592 -12.1762 9.66984
51 1 6.8683 -12.2035 8.76096
49 1 7.11145 -12.3794 9.97855
48 1 9.09474 -12.3967 10.1697
359 2 -18.8248 12.0121 10.2293
358 2 -17.3692 12.0671 10.0278
357 2 -15.884 12.1247 9.82502
356 2 -14.4004 12.1451 9.66023
355 2 -12.5735 12.1302 9.57903
354 2 -10.7197 12.0562 9.47074
353 2 -8.83095 12.1212 9.38513
352 2 -6.80924 12.097 9.38143
351 2 -4.86236 12.0574 9.30874
400 2 -1.77851 11.9436 9.95548
201 2 1.58477 11.9538 9.97219
250 2 4.69414 11.8877 9.34853
249 2 6.64913 11.869 9.50346
248 2 8.57371 11.8619 9.72936
247 2 10.4841 11.9564 9.90069
246 2 12.4145 11.9701 10.046
163 1 -24.6799 -12.4444 10.9558
164 1 -25.6677 -12.5346 11.5512
162 1 -23.6728 -12.5164 10.4204
199 1 -2.55423 -12.1567 11.2897
2 1 2.51008 -12.1208 11.3139
47 1 11.0314 -12.4285 10.4091
46 1 12.8679 -12.3811 10.6061
45 1 14.6663 -12.4103 10.8156
44 1 16.3369 -12.5561 10.9378
43 1 17.8924 -12.5665 11.2059
42 1 19.3222 -12.4963 11.5149
41 1 20.6798 -12.665 11.5904
364 2 -25.0457 11.7323 11.8017
362 2 -22.8361 11.8759 11.0328
363 2 -23.9958 11.8094 11.3691
361 2 -21.5282 11.959 10.6942
360 2 -20.2443 11.9833 10.3498
399 2 -2.62602 11.8437 11.1961
202 2 2.3193 12.0015 11.2119
245 2 14.251 12.0638 10.2459
244 2 15.8337 12.012 10.4064
243 2 17.4129 11.9371 10.5788
242 2 18.8793 11.9535 10.6893
241 2 20.1675 12.0971 11.0391
240 2 21.5125 12.1352 11.374
239 2 22.6918 12.2709 11.6708
165 1 -26.4731 -12.4761 12.3239
166 1 -26.9342 -12.6275 13.2568
198 1 -3.35 -12.1178 12.5146
3 1 3.27043 -12.0426 12.5968
40 1 21.9561 -12.7587 11.8933
39 1 23.1388 -12.7633 12.1932
38 1 24.2394 -12.7318 12.5757
37 1 25.1604 -12.4725 13.1381
366 2 -26.6236 12.0296 13.2761
365 2 -25.891 11.9084 12.4853
398 2 -3.36351 11.8634 12.4385
203 2 2.94155 11.9262 12.484
238 2 23.8142 12.2633 12.0141
237 2 24.7603 12.3778 12.611
236 2 25.7077 12.4147 13.0645
167 1 -27.2965 -12.4787 14.2494
197 1 -4.11413 -12.1564 13.7355
196 1 -4.84661 -12.2361 14.9108
4 1 4.03845 -12.076 13.7862
36 1 26.1479 -12.266 13.609
35 1 26.7372 -12.2463 14.4611
367 2 -27.0228 11.9909 14.2286
397 2 -4.14497 11.9964 13.7399
396 2 -4.96993 11.9641 14.9298
204 2 3.6245 11.9886 13.7356
205 2 4.32434 11.9782 14.9373
235 2 26.1487 12.2978 14.0902
168 1 -27.0502 -12.2109 15.2297
169 1 -26.753 -12.3923 16.2459
195 1 -5.63284 -12.1411 16.1111
5 1 4.82026 -12.0502 15.0451
6 1 5.49564 -11.9438 16.18
34 1 26.7033 -12.1077 15.4925
368 2 -26.6893 12.3313 15.1377
369 2 -26.1377 12.2488 15.9605
395 2 -5.73269 11.9512 16.05
206 2 5.11727 12.0926 16.0189
234 2 26.3136 12.1976 15.1796
233 2 26.3031 12.2179 16.2104
170 1 -26.3464 -12.2783 17.2276
171 1 -25.7596 -12.1408 18.0511
194 1 -6.5319 -12.2018 17.1877
7 1 6.10752 -12.0571 17.3765
32 1 25.934 -11.8637 17.3191
33 1 26.4971 -12.1442 16.5871
31 1 25.062 -11.7912 17.7869
370 2 -25.5387 12.6785 16.7054
371 2 -24.7805 12.9214 17.3944
394 2 -6.46724 12.0204 17.2469
207 2 5.87841 12.0731 17.1243
231 2 25.457 11.8185 18.0299
232 2 26.0877 12.0491 17.1813
172 1 -24.9193 -12.2583 18.6157
173 1 -24.2935 -12.216 19.4812
193 1 -7.30473 -12.2091 18.2106
192 1 -8.05456 -12.1754 19.3004
8 1 6.71831 -12.1031 18.5507
9 1 7.41598 -12.1275 19.6024
29 1 24.0889 -11.3213 19.4266
30 1 24.5318 -11.3421 18.554
372 2 -24.3393 12.8216 18.3038
373 2 -23.7896 12.4467 19.0764
393 2 -7.2635 12.1338 18.3313
392 2 -7.94549 12.2249 19.4162
208 2 6.60884 12.0485 18.1671
209 2 7.34612 12.0402 19.2598
229 2 24.2944 12.0442 19.6665
230 2 24.8971 11.8513 18.8397
174 1 -23.5044 -12.3736 20.126
175 1 -22.7985 -12.4593 20.9302
190 1 -9.76858 -12.4356 21.0631
191 1 -8.95179 -12.3308 20.2021
10 1 8.085 -12.2437 20.561
27 1 22.6277 -11.7942 20.8529
28 1 23.345 -11.601 20.0887
228 2 23.5229 11.7969 20.2827
374 2 -23.4034 12.3855 19.9834
375 2 -22.6596 12.7756 20.7095
390 2 -9.69169 12.4856 21.1997
391 2 -8.81123 12.3373 20.3773
210 2 8.10231 12.0823 20.3543
211 2 8.99278 12.1461 21.1236
227 2 22.8241 11.8898 21.0686
176 1 -22.029 -12.3574 21.6448
177 1 -21.4838 -12.6509 22.4792
188 1 -11.3916 -12.4056 22.667
189 1 -10.5695 -12.3133 21.8736
11 1 8.84741 -12.2815 21.4712
12 1 9.62026 -12.2591 22.4377
24 1 20.3362 -11.8912 22.5794
26 1 21.8006 -11.8387 21.4801
25 1 21.3089 -12.1523 22.2999
376 2 -21.8911 12.7117 21.3766
377 2 -21.4673 12.8111 22.3279
389 2 -10.5334 12.5277 22.1174
212 2 9.78579 12.1701 21.963
226 2 22.1809 12.1107 21.859
225 2 21.6403 12.3721 22.715
178 1 -20.6567 -12.7911 23.087
179 1 -19.7642 -12.8338 23.6583
180 1 -18.9947 -12.6657 24.272
186 1 -13.1222 -12.6689 24.0498
187 1 -12.3151 -12.4631 23.2871
13 1 10.3834 -12.2143 23.4029
14 1 11.1059 -12.034 24.2484
22 1 18.9189 -12.0237 23.8332
23 1 19.7851 -12.2002 23.353
378 2 -20.6353 12.7701 22.9579
379 2 -19.8498 12.8993 23.6549
380 2 -19.0705 12.8219 24.3469
386 2 -13.153 12.8855 24.3097
387 2 -12.2491 12.7756 23.6851
388 2 -11.4045 12.6767 22.9065
213 2 10.5379 12.2454 22.894
214 2 11.3026 12.1147 23.6937
215 2 12.2547 12.1817 24.2633
224 2 20.7998 12.26 23.413
223 2 20.0731 12.5737 24.0503
181 1 -18.1106 -12.9509 24.6406
182 1 -17.1342 -12.9254 24.8521
183 1 -16.1542 -12.8339 25.0911
184 1 -15.0746 -12.7852 24.9055
185 1 -14.0648 -12.7007 24.5943
15 1 12.1134 -12.0903 24.7791
16 1 13.148 -12.1555 25.0575
17 1 14.2003 -12.2048 25.3696
18 1 15.2542 -12.0729 25.2721
19 1 16.2152 -12.312 25.1034
20 1 17.142 -11.9997 24.8367
21 1 18.0644 -12.1915 24.4154
381 2 -18.036 12.7223 24.41
382 2 -17.0907 12.6823 24.7537
383 2 -16.0738 12.7869 25.0484
384 2 -15.0217 12.8233 25.1909
385 2 -14.1176 12.7997 24.7123
216 2 13.2232 12.3038 24.7499
217 2 14.1944 12.1176 25.2245
219 2 16.3059 12.1225 25.4279
218 2 15.247 12.1464 25.5296
220 2 17.3286 12.1993 25.1639
222 2 19.0619 12.41 24.4755
221 2 18.285 11.9475 24.9792
ITEM: TIMESTEP
3000
ITEM: NUMBER OF ATOMS
400
ITEM: BOX BOUNDS ff ff ff
-3.7000000000000000e+01 3.7000000000000000e+01
-3.7000000000000000e+01 3.7000000000000000e+01
-3.7000000000000000e+01 3.7000000000000000e+01
ITEM: ATOMS id type x y z
107 1 -5.78539 -12.3618 -30.9147
106 1 -4.74742 -12.4989 -31.0624
104 1 -2.65936 -12.5328 -31.3367
105 1 -3.70176 -12.48 -31.1045
102 1 -0.823558 -12.235 -31.6619
103 1 -1.83303 -11.9838 -31.7636
101 1 0.122675 -12.1364 -31.8549
99 1 2.11937 -12.5973 -31.3197
100 1 1.1427 -12.2756 -31.6297
98 1 3.10743 -12.3779 -31.0953
96 1 5.10665 -12.3998 -31.0257
97 1 4.08784 -12.139 -30.8949
95 1 6.11459 -12.4457 -30.7887
305 2 -4.15914 11.6374 -31.0709
306 2 -5.15421 11.7821 -30.9035
302 2 -1.06119 11.6247 -31.1122
303 2 -2.12099 11.6975 -31.1781
300 2 1.01471 11.6949 -31.3678
298 2 3.06937 11.786 -31.5551
307 2 -6.18846 11.8169 -30.8912
304 2 -3.19138 11.8169 -31.3707
301 2 -0.049734 11.8542 -31.2405
299 2 1.99345 11.8131 -31.4245
297 2 4.00704 11.8213 -31.9802
296 2 4.91478 11.8391 -31.495
294 2 6.91907 12.1307 -31.0687
295 2 5.95021 11.9725 -31.4807
293 2 7.90037 11.8781 -30.7065
111 1 -9.58942 -11.9736 -29.2636
109 1 -7.71383 -12.3675 -30.1167
110 1 -8.55656 -12.0957 -29.5375
108 1 -6.74923 -12.3425 -30.5625
94 1 6.99224 -12.3631 -30.2476
93 1 7.95686 -12.5314 -29.8535
92 1 8.90734 -12.4144 -29.4755
91 1 9.83362 -11.9095 -29.2484
291 2 9.74674 11.7499 -29.6964
312 2 -10.9794 12.4462 -29.1761
310 2 -9.19335 12.0446 -30.1227
311 2 -10.0511 12.2438 -29.6391
309 2 -8.23541 11.9292 -30.4204
308 2 -7.20331 11.9187 -30.5718
292 2 8.79994 12.0262 -30.168
114 1 -12.3667 -11.9991 -27.7503
112 1 -10.5383 -11.9955 -28.7503
113 1 -11.4858 -11.8644 -28.3303
90 1 10.8725 -11.9298 -28.9626
89 1 11.8182 -11.8645 -28.5555
88 1 12.587 -11.9336 -27.8123
289 2 11.424 11.7081 -28.592
290 2 10.5335 11.6447 -29.0669
288 2 12.3145 11.6709 -28.0953
313 2 -11.9185 12.4325 -28.6925
314 2 -12.6496 12.4052 -27.8545
287 2 13.2212 11.9295 -27.5838
117 1 -15.0838 -11.9446 -26.2625
115 1 -13.2532 -11.8404 -27.277
87 1 13.5441 -11.9385 -27.3764
85 1 15.2007 -11.8722 -26.1577
116 1 -14.1953 -11.759 -26.7929
86 1 14.3326 -11.7747 -26.7349
286 2 13.9848 11.8064 -26.9099
285 2 14.641 11.65 -26.0702
315 2 -13.4133 12.4294 -27.1955
316 2 -14.2468 12.1623 -26.5728
119 1 -16.502 -11.9113 -24.7125
118 1 -15.765 -11.8318 -25.4699
83 1 16.4836 -11.9883 -24.5628
84 1 15.6975 -11.7907 -25.2422
317 2 -15.0689 11.9786 -25.9076
318 2 -15.9492 12.1858 -25.3594
319 2 -16.3547 12.1818 -24.4089
284 2 15.4649 11.8343 -25.3794
283 2 16.1832 12.2133 -24.7063
121 1 -17.678 -11.9468 -22.9627
82 1 17.0589 -12.1436 -23.682
81 1 17.7159 -12.2994 -22.885
120 1 -17.1345 -11.747 -23.8608
320 2 -17.0573 12.1096 -23.602
282 2 16.9167 12.0758 -23.9685
281 2 17.4954 12.1136 -23.0033
122 1 -18.1247 -11.994 -22.0606
80 1 18.1436 -12.341 -21.9564
322 2 -17.7584 12.1961 -21.6441
321 2 -17.5151 12.0943 -22.6687
280 2 17.9831 11.9338 -22.0767
123 1 -18.6397 -12.164 -21.0922
124 1 -19.1587 -12.2764 -20.0711
79 1 18.687 -12.3364 -20.9926
78 1 19.248 -12.2163 -20.1063
323 2 -18.2003 12.1275 -20.6793
279 2 18.4269 12.1103 -21.0846
278 2 18.739 12.2937 -20.0965
125 1 -19.4932 -12.2022 -19.0314
77 1 19.6634 -12.55 -19.0787
324 2 -18.5527 12.1905 -19.6371
325 2 -18.6715 12.2273 -18.5948
277 2 19.2133 12.2057 -19.1273
127 1 -19.7184 -12.2583 -16.8362
126 1 -19.6617 -12.2388 -17.9463
76 1 19.6733 -12.6659 -17.974
75 1 19.8193 -12.6692 -16.8728
326 2 -18.9868 12.2632 -17.5284
276 2 19.4063 11.9961 -18.056
275 2 19.6771 11.9527 -16.963
128 1 -19.9024 -12.2545 -15.7515
74 1 19.9737 -12.7982 -15.7418
327 2 -18.9787 12.2387 -16.4487
328 2 -18.9114 12.1444 -15.3841
274 2 19.786 11.9547 -15.8239
129 1 -20.0641 -12.2733 -14.6809
130 1 -19.938 -12.2622 -13.544
73 1 20.0999 -12.8389 -14.6117
72 1 20.1712 -12.8123 -13.4946
329 2 -18.9696 12.2708 -14.2638
272 2 19.6137 12.1232 -13.6069
273 2 19.7199 12.1222 -14.7067
131 1 -19.5835 -12.2553 -12.3959
71 1 20.0181 -12.7999 -12.3756
330 2 -19.0849 12.1994 -13.1323
331 2 -18.8185 12.3278 -12.0541
271 2 19.5495 12.048 -12.4901
132 1 -19.1756 -12.1926 -11.2383
70 1 19.842 -12.8099 -11.2819
332 2 -18.5087 12.335 -10.8978
270 2 19.3955 12.062 -11.2635
133 1 -18.8587 -12.1192 -10.1567
134 1 -18.4117 -12.0708 -9.07928
69 1 19.5849 -12.7846 -10.1155
68 1 19.1884 -12.8537 -9.04262
333 2 -18.2703 12.4002 -9.82179
334 2 -17.884 12.4101 -8.73804
269 2 19.1758 11.958 -10.0891
268 2 18.8273 11.8798 -8.94464
135 1 -17.9839 -12.1181 -7.97608
67 1 18.7531 -12.7059 -7.95616
267 2 18.4358 11.7625 -7.81049
335 2 -17.385 12.3963 -7.65409
136 1 -17.4538 -12.0067 -6.86783
137 1 -16.8908 -12.0644 -5.7131
65 1 17.7546 -12.6517 -5.75867
66 1 18.4135 -12.5941 -6.77687
266 2 17.7786 11.7771 -6.76447
336 2 -16.7723 12.3639 -6.57017
265 2 17.2127 11.8894 -5.62977
138 1 -16.21 -11.9597 -4.54801
64 1 17.0963 -12.6473 -4.71564
337 2 -16.1732 12.294 -5.48847
338 2 -15.6288 12.3787 -4.35208
264 2 16.5572 11.8581 -4.58457
139 1 -15.4975 -11.9827 -3.4235
140 1 -14.5775 -11.9083 -2.42349
63 1 16.3492 -12.7291 -3.73652
62 1 15.6628 -12.6486 -2.63245
339 2 -14.922 12.502 -3.28041
263 2 15.8458 11.8927 -3.49165
262 2 15.1318 11.9276 -2.47477
141 1 -13.7908 -12.0065 -1.30784
61 1 14.722 -12.5731 -1.609
340 2 -14.0912 12.4679 -2.23516
341 2 -13.2417 12.3955 -1.21763
261 2 14.2433 11.9036 -1.53973
142 1 -12.8103 -12.046 -0.270691
143 1 -11.8422 -11.9612 0.7508
59 1 12.7602 -12.5017 0.293705
60 1 13.7887 -12.5263 -0.612323
342 2 -12.4544 12.3312 -0.243573
343 2 -11.4174 12.3163 0.68381
259 2 12.4432 11.9499 0.401709
260 2 13.3853 11.9649 -0.559597
144 1 -10.7802 -11.8658 1.80255
57 1 10.6757 -12.4512 2.1769
58 1 11.7242 -12.414 1.27889
344 2 -10.4453 12.2947 1.74148
257 2 10.3044 11.9369 2.22134
258 2 11.4569 11.9556 1.33273
145 1 -9.72962 -11.8755 2.83017
146 1 -8.67871 -11.9876 3.85409
56 1 9.62504 -12.3359 3.17307
345 2 -9.45035 12.2299 2.72851
346 2 -8.3741 12.1845 3.66472
256 2 9.33067 11.8883 3.18972
147 1 -7.55692 -11.9351 4.77841
55 1 8.53039 -12.3386 4.07015
54 1 7.34307 -12.2909 4.97458
347 2 -7.28414 12.1885 4.65628
254 2 7.12356 12.0272 4.99044
255 2 8.24624 11.9855 4.11212
148 1 -6.36139 -11.8393 5.64451
149 1 -5.21012 -11.9281 6.58737
52 1 5.03667 -12.201 6.74833
53 1 6.25858 -12.2875 5.90761
348 2 -6.20058 12.1937 5.55897
349 2 -4.97341 12.1953 6.44929
252 2 4.93225 12.0101 6.8495
253 2 6.05041 12.0885 5.93952
150 1 -4.03398 -12.033 7.47131
151 1 -2.81102 -12.0659 8.36032
50 1 2.62536 -12.2207 8.43794
51 1 3.82517 -12.1664 7.60612
352 2 -4.07304 12.1164 8.57881
350 2 -3.90258 12.154 7.43146
351 2 -2.74307 12.0375 8.279
251 2 3.79401 12.0274 7.6343
250 2 2.5763 12.0209 8.46424
157 1 -10.6338 -11.9825 10.096
156 1 -9.41003 -12.0324 9.76586
155 1 -8.09523 -12.1294 9.47369
154 1 -6.83385 -12.0234 9.15357
153 1 -5.47279 -12.1349 8.93552
152 1 -4.14539 -12.0693 8.66326
200 1 -1.10818 -12.1084 8.79158
199 1 -1.97113 -12.3095 9.70251
1 1 0.841217 -12.1992 8.85332
2 1 1.60637 -12.1348 9.83547
49 1 3.92656 -12.2639 8.8562
48 1 5.32036 -12.2015 9.2671
47 1 6.62718 -12.2374 9.58388
46 1 7.94957 -12.2396 9.89179
45 1 9.26494 -12.2615 10.2061
357 2 -10.5487 12.2026 10.1708
356 2 -9.30354 12.181 9.84298
355 2 -7.97671 12.2655 9.58789
354 2 -6.68119 12.2791 9.29021
353 2 -5.40041 12.1657 8.94338
400 2 -1.0292 12.0253 8.74202
399 2 -1.80713 12.0516 9.66888
201 2 0.827268 12.0261 8.8581
202 2 1.66747 12.1055 9.82062
249 2 3.88509 12.0175 8.78119
248 2 5.21301 12.0484 9.13288
247 2 6.54031 12.1154 9.46295
246 2 7.84708 12.1634 9.76153
158 1 -11.9226 -11.8623 10.3785
198 1 -2.63479 -12.4395 10.7527
197 1 -3.41852 -12.4557 11.648
3 1 2.31923 -12.1364 10.8417
44 1 10.5333 -12.2317 10.6135
43 1 11.7867 -12.238 10.9769
42 1 13.0222 -12.1693 11.3767
41 1 14.2144 -12.1796 11.7697
162 1 -16.6587 -11.6904 11.6182
161 1 -15.571 -11.7206 11.1445
160 1 -14.3504 -11.7858 10.8818
159 1 -13.1501 -11.8 10.6526
362 2 -16.398 12.341 11.8076
361 2 -15.2437 12.2979 11.5105
360 2 -14.1302 12.2819 11.1264
359 2 -12.9546 12.3972 10.9116
358 2 -11.7254 12.2651 10.4689
398 2 -2.44891 12.1014 10.7
397 2 -3.17714 12.1482 11.6299
203 2 2.46619 12.0995 10.7436
204 2 3.18967 12.0793 11.6313
245 2 9.09582 12.313 10.24
244 2 10.3379 12.2941 10.6022
243 2 11.567 12.3654 11.0015
242 2 12.7272 12.3238 11.2947
241 2 13.9326 12.4211 11.7131
164 1 -19.0227 -11.8578 12.259
196 1 -4.29175 -12.3687 12.4731
195 1 -5.11442 -12.4253 13.3661
4 1 3.02953 -12.2208 11.8247
5 1 3.65421 -12.173 12.7799
40 1 15.3538 -12.2807 12.1817
39 1 16.3841 -12.3873 12.6732
38 1 17.5021 -12.3828 13.1216
165 1 -19.9981 -11.6592 12.7703
163 1 -17.8804 -11.8015 11.9075
366 2 -20.7499 12.4103 13.2901
365 2 -19.7685 12.3732 12.7505
364 2 -18.6172 12.2402 12.4915
363 2 -17.5113 12.2709 12.1818
396 2 -3.93901 12.2595 12.5811
205 2 4.02416 12.1473 12.5155
240 2 15.0893 12.3238 12.0959
239 2 16.1657 12.2749 12.5192
238 2 17.1552 12.2633 13.0372
194 1 -5.90408 -12.3508 14.2333
6 1 4.34558 -12.3529 13.7052
7 1 4.96573 -12.4442 14.6257
37 1 18.5295 -12.3267 13.6352
36 1 19.5092 -12.2059 14.1361
35 1 20.541 -12.1193 14.4519
167 1 -21.8092 -11.5034 14.0764
168 1 -22.571 -11.5332 14.9084
166 1 -20.9097 -11.6551 13.3959
367 2 -21.5873 12.6364 13.84
368 2 -22.417 12.6311 14.5391
394 2 -5.67606 12.2827 14.3756
395 2 -4.87783 12.2884 13.396
206 2 4.76178 12.1773 13.4315
207 2 5.57204 12.1114 14.2951
237 2 18.1709 12.2109 13.5729
236 2 19.1653 12.2425 14.0693
235 2 20.1307 12.2697 14.4519
234 2 21.0558 12.3068 14.9506
169 1 -23.4201 -11.8089 15.572
170 1 -24.0903 -11.8889 16.3648
192 1 -7.41839 -12.3662 16.0304
193 1 -6.66591 -12.3581 15.143
8 1 5.69527 -12.2117 15.4725
9 1 6.43572 -12.2834 16.4369
34 1 21.4083 -12.1953 15.0787
33 1 22.1137 -12.0092 15.8232
369 2 -23.0677 12.5313 15.3554
370 2 -23.5808 12.5436 16.2799
392 2 -7.3449 12.3502 15.9422
393 2 -6.57114 12.4065 15.031
208 2 6.21741 12.1363 15.2688
209 2 6.99859 12.1294 16.1073
233 2 21.8751 12.5117 15.6386
232 2 22.6154 12.4089 16.3755
190 1 -8.95254 -12.4477 17.6499
191 1 -8.1532 -12.4547 16.8708
10 1 7.18846 -12.3415 17.3063
11 1 7.98676 -12.4188 18.0681
32 1 22.8436 -12.0952 16.5445
171 1 -24.0194 -11.7771 17.3893
31 1 23.3688 -11.6631 17.2669
371 2 -23.6566 12.735 17.2999
390 2 -8.80216 12.4628 17.6532
391 2 -8.02903 12.4632 16.8188
210 2 7.74867 12.163 16.994
211 2 8.40898 12.0894 17.8948
231 2 23.0442 12.7151 17.2768
172 1 -24.0997 -11.9469 18.4166
173 1 -23.7261 -11.8765 19.3687
188 1 -10.4891 -12.513 19.2177
189 1 -9.67912 -12.5457 18.5169
12 1 8.80512 -12.4798 18.8566
13 1 9.63449 -12.5144 19.5525
29 1 23.5645 -11.3657 19.2008
30 1 23.7417 -11.4146 18.1869
372 2 -23.8789 12.8215 18.2673
373 2 -23.4182 12.498 19.1927
388 2 -10.4782 12.4378 19.1116
389 2 -9.56494 12.5385 18.43
212 2 9.1117 11.957 18.7385
213 2 9.83408 12.0493 19.5832
229 2 22.9487 12.535 19.2072
230 2 23.1446 12.2175 18.2435
174 1 -23.1052 -11.8439 20.1524
175 1 -22.2633 -11.8657 20.7176
186 1 -12.2722 -12.692 20.4054
185 1 -13.1478 -12.522 21.0241
187 1 -11.3921 -12.4704 19.8508
14 1 10.4446 -12.4993 20.3064
15 1 11.358 -12.4225 20.8398
27 1 22.1656 -11.908 20.6179
26 1 21.2752 -11.9971 21.1091
28 1 22.9554 -11.8061 19.958
374 2 -22.806 12.4482 20.0514
375 2 -22.3823 12.3476 20.9792
386 2 -12.1579 12.5502 20.5384
385 2 -13.0113 12.5602 21.1854
387 2 -11.3648 12.514 19.7982
214 2 10.7062 12.113 20.2596
215 2 11.5209 11.9083 20.9398
227 2 22.4221 11.9221 20.9491
228 2 22.917 12.5478 20.2393
176 1 -21.6277 -12.2727 21.4031
177 1 -20.6749 -12.3865 21.7612
178 1 -19.723 -12.5689 22.1986
182 1 -15.7896 -12.38 22.8239
183 1 -14.9449 -12.4923 22.141
184 1 -13.9983 -12.3399 21.6741
16 1 12.3369 -12.277 21.3346
17 1 13.3419 -12.0218 21.7902
18 1 14.2024 -12.1396 22.3964
24 1 19.9005 -12.1791 22.5109
25 1 20.5976 -11.918 21.8462
225 2 20.7638 11.6832 22.1336
224 2 20.0532 11.8077 22.8121
226 2 21.6895 11.6688 21.6366
376 2 -21.7553 12.338 21.7829
377 2 -20.8209 12.4105 22.1947
378 2 -19.853 12.7291 22.4257
379 2 -18.9728 13.1831 22.634
380 2 -18.004 13.2037 22.6232
381 2 -17.0032 12.9205 22.6198
382 2 -15.9792 12.7656 22.2892
383 2 -14.9328 12.7678 22.081
384 2 -13.9926 12.7532 21.6257
216 2 12.4099 12.0329 21.5438
217 2 13.431 12.1566 22.0656
218 2 14.3946 12.3169 22.4696
179 1 -18.9276 -12.6014 22.8431
180 1 -17.9278 -12.5263 23.0287
181 1 -16.8689 -12.5135 22.957
19 1 15.0909 -12.0734 22.9778
20 1 16.0756 -12.2584 23.2169
21 1 17.0913 -12.3057 23.1889
22 1 18.1274 -12.1038 23.3024
23 1 19.0888 -12.0033 23.1016
219 2 15.2221 11.9372 22.8949
220 2 16.1871 12.0474 23.2709
221 2 17.2136 11.8418 23.451
223 2 19.1857 12.1487 23.1142
222 2 18.1988 11.9245 23.2578
ITEM: TIMESTEP
4000
ITEM: NUMBER OF ATOMS
400
ITEM: BOX BOUNDS ff ff ff
-3.7000000000000000e+01 3.7000000000000000e+01
-3.7000000000000000e+01 3.7000000000000000e+01
-3.7000000000000000e+01 3.7000000000000000e+01
ITEM: ATOMS id type x y z
102 1 -0.839826 -12.6533 -31.0447
103 1 -1.80726 -12.607 -30.8669
101 1 0.183337 -12.7833 -31.1372
99 1 2.15857 -12.9843 -30.7066
100 1 1.19767 -12.8012 -31.0833
98 1 3.17093 -12.8446 -30.7371
97 1 4.23162 -12.8928 -30.7109
305 2 -4.39284 11.6193 -31.0775
304 2 -3.33405 11.5614 -31.116
302 2 -1.22604 11.7134 -31.3293
303 2 -2.273 11.5088 -31.3072
301 2 -0.215575 11.7583 -31.2673
300 2 0.80587 11.5421 -31.246
299 2 1.83924 11.4206 -30.9254
298 2 2.83273 11.4357 -31.0873
297 2 3.79273 11.5837 -30.7407
110 1 -8.74213 -11.8853 -29.1985
109 1 -7.72613 -11.852 -29.4104
106 1 -4.83569 -11.8838 -30.3726
104 1 -2.83623 -12.4372 -30.5664
105 1 -3.86613 -12.1828 -30.5834
96 1 5.15744 -12.943 -30.2967
95 1 6.17038 -12.8627 -30.0441
94 1 7.17202 -12.9516 -29.8287
93 1 8.18775 -13.0064 -29.8884
92 1 9.09234 -13.1447 -29.4575
107 1 -5.84868 -11.7557 -30.1311
108 1 -6.76103 -11.672 -29.7326
296 2 4.86381 11.5649 -30.6101
294 2 6.77053 11.6661 -29.7953
295 2 5.76174 11.633 -30.0814
293 2 7.71229 11.6888 -29.3133
292 2 8.69167 11.3349 -29.1332
310 2 -9.04564 12.5327 -29.159
309 2 -8.06454 12.2512 -29.3421
308 2 -7.09809 12.1972 -29.6852
307 2 -6.15368 11.9722 -30.0627
306 2 -5.22744 11.833 -30.5717
112 1 -10.3397 -12.0254 -27.9981
91 1 10.0515 -12.9645 -29.0912
90 1 10.6867 -12.6007 -28.3245
89 1 11.5999 -12.7119 -27.8425
111 1 -9.50253 -11.7322 -28.5447
291 2 9.58926 11.4355 -28.5448
290 2 10.5963 11.4727 -28.2915
313 2 -11.8562 12.42 -27.9872
312 2 -10.8955 12.4156 -28.3706
311 2 -10.0482 12.7847 -28.896
115 1 -12.6467 -11.8146 -26.1067
88 1 12.1567 -12.4044 -27.0704
87 1 12.8701 -12.3467 -26.3284
114 1 -11.8984 -11.7263 -26.8146
113 1 -11.1469 -11.5236 -27.4574
289 2 11.1343 11.7413 -27.4238
314 2 -12.6182 12.1204 -27.3536
315 2 -13.3828 12.148 -26.7093
288 2 12.0075 11.834 -26.8002
287 2 12.6826 11.8326 -26.0125
85 1 14.4031 -12.1837 -24.8542
86 1 13.6949 -12.2057 -25.6517
117 1 -13.8622 -11.7855 -24.4567
116 1 -13.3696 -11.5799 -25.3879
316 2 -13.9042 12.4709 -25.8429
317 2 -14.5519 12.5373 -24.9972
286 2 13.3624 11.922 -25.2674
285 2 14.272 11.8276 -24.7316
83 1 15.6244 -12.0982 -23.352
84 1 15.227 -12.0781 -24.298
119 1 -15.1919 -11.7373 -22.9928
118 1 -14.5864 -11.4876 -23.7984
284 2 14.9613 11.7732 -23.9153
283 2 15.2843 11.6054 -22.8902
318 2 -15.2332 12.3535 -24.1769
319 2 -15.5567 12.1233 -23.2244
82 1 16.227 -11.936 -22.4555
81 1 16.5815 -11.9863 -21.4668
120 1 -15.7899 -11.6828 -22.1213
321 2 -16.5364 11.5088 -21.4445
282 2 15.8797 11.5158 -22.0246
281 2 16.5078 11.5048 -21.2689
320 2 -16.0354 11.8102 -22.3583
80 1 17.1365 -12.0906 -20.5518
122 1 -16.6953 -11.6652 -20.1583
121 1 -16.2948 -11.6681 -21.1608
322 2 -17.0609 11.4102 -20.4969
280 2 17.0043 11.3718 -20.3675
79 1 17.5932 -12.3409 -19.6706
78 1 17.57 -12.3915 -18.581
123 1 -17.0356 -11.6003 -19.1338
124 1 -17.4705 -11.603 -18.1672
323 2 -17.0903 11.5526 -19.4283
324 2 -17.0236 11.5553 -18.3206
279 2 17.3532 11.6689 -19.4431
278 2 17.8396 11.6072 -18.4888
77 1 17.8483 -12.5035 -17.4945
125 1 -17.6898 -11.797 -17.126
325 2 -17.0429 11.5887 -17.2643
277 2 17.5942 11.5626 -17.4121
127 1 -17.5628 -12.0617 -15.0025
126 1 -17.6591 -12.0258 -16.0544
76 1 17.8694 -12.514 -16.4274
75 1 17.8541 -12.4966 -15.3256
276 2 17.6456 11.6551 -16.3501
275 2 17.7166 11.4929 -15.3436
326 2 -17.0326 11.8404 -16.2283
327 2 -16.737 12.0454 -15.1765
128 1 -17.4547 -12.1298 -13.9485
74 1 17.7376 -12.4973 -14.2832
274 2 17.4181 11.5151 -14.3217
328 2 -16.5455 12.0377 -14.1561
129 1 -17.0169 -12.1742 -12.9362
130 1 -16.7287 -12.122 -11.8715
73 1 17.6953 -12.3515 -13.1894
72 1 17.5037 -12.4585 -12.1182
272 2 16.9475 11.5626 -12.1736
273 2 17.1872 11.6476 -13.2318
329 2 -16.4047 12.0218 -13.1146
330 2 -16.2447 12.1942 -12.0432
131 1 -16.2613 -12.1345 -10.9248
71 1 17.2541 -12.5572 -11.1189
271 2 16.8306 11.5847 -11.0986
331 2 -15.8669 12.3281 -10.9762
132 1 -16.0115 -12.1509 -9.76973
133 1 -15.5431 -12.4553 -8.77128
69 1 16.3703 -12.527 -9.0572
70 1 16.8598 -12.5259 -10.028
270 2 16.3807 11.7189 -10.0866
269 2 15.9004 11.7326 -9.08498
332 2 -15.6885 12.3054 -9.88547
333 2 -15.3544 12.3279 -8.79325
134 1 -15.0896 -12.3383 -7.79362
68 1 15.8009 -12.4015 -8.05296
268 2 15.4191 11.7123 -8.04103
334 2 -14.6872 12.2629 -7.86842
135 1 -14.5635 -12.2527 -6.78679
136 1 -14.0028 -12.3381 -5.78552
66 1 14.8559 -12.3547 -6.07921
67 1 15.3096 -12.465 -7.07197
267 2 15.1133 11.7883 -7.00292
335 2 -14.1852 12.419 -6.887
336 2 -13.7815 12.525 -5.85808
266 2 14.3905 11.8528 -6.13219
137 1 -13.3373 -12.276 -4.88428
138 1 -12.7416 -12.0576 -3.95651
65 1 14.3549 -12.3177 -5.04555
64 1 13.8967 -12.4026 -3.98531
265 2 13.9585 11.7713 -5.0228
337 2 -13.0204 12.5603 -4.99105
338 2 -12.3813 12.5759 -3.99089
264 2 13.2971 11.8253 -4.09189
139 1 -12.1351 -11.9686 -2.94123
63 1 13.1605 -12.445 -3.1012
263 2 12.6556 11.795 -3.19222
339 2 -11.6862 12.5887 -3.02541
140 1 -11.4222 -12.0612 -2.01066
141 1 -10.6075 -11.9954 -1.13382
61 1 11.6145 -12.3415 -1.31759
62 1 12.406 -12.3979 -2.20686
261 2 11.1361 11.6109 -1.42295
262 2 11.9679 11.6934 -2.27166
340 2 -11.1683 12.5332 -1.9646
341 2 -10.4681 12.5446 -1.03594
142 1 -9.84395 -11.9468 -0.221098
143 1 -9.13829 -11.8875 0.742237
59 1 10.1136 -12.4133 0.481324
60 1 10.8655 -12.4249 -0.418101
259 2 9.67512 11.4649 0.455285
260 2 10.3282 11.5541 -0.544419
342 2 -9.83113 12.5695 -0.0754191
57 1 8.45843 -12.354 2.28551
58 1 9.35232 -12.344 1.43413
144 1 -8.3357 -11.7697 1.61654
257 2 8.18095 11.7125 2.27673
258 2 9.02604 11.6667 1.43745
343 2 -9.04196 12.4671 0.891354
344 2 -8.23108 12.4428 1.74981
145 1 -7.46418 -11.933 2.46327
146 1 -6.57859 -11.8865 3.33688
56 1 7.63677 -12.4422 3.1128
256 2 7.39671 11.7418 3.13065
345 2 -7.37358 12.3287 2.60182
346 2 -6.57421 12.2406 3.54252
147 1 -5.79804 -11.9089 4.28501
148 1 -4.89211 -11.9202 5.12361
55 1 6.70232 -12.3611 3.97751
54 1 5.78941 -12.3134 4.89985
347 2 -5.70235 12.322 4.39389
348 2 -4.81775 12.3587 5.20259
253 2 4.69023 11.9435 5.50505
254 2 5.60875 12.0006 4.79547
255 2 6.49788 11.9524 4.01388
149 1 -3.9601 -11.9214 5.94315
150 1 -3.04153 -11.9539 6.79455
52 1 3.80047 -12.2311 6.33698
53 1 4.81413 -12.4301 5.61495
349 2 -3.92596 12.2577 6.01331
350 2 -2.94698 12.2928 6.87808
252 2 3.79941 12.0136 6.32354
153 1 -4.29943 -11.8492 8.4518
152 1 -3.22134 -11.9817 8.07102
151 1 -2.14134 -11.9594 7.68841
200 1 -0.819355 -11.9895 8.12334
1 1 0.551422 -11.9839 8.15071
50 1 1.89993 -12.084 7.90341
51 1 2.86537 -12.0781 7.17914
49 1 3.02432 -11.9006 8.36935
353 2 -4.23578 12.3857 8.57187
352 2 -3.1682 12.3866 8.14611
351 2 -2.08936 12.3218 7.70022
400 2 -0.82646 12.2704 8.07237
201 2 0.624197 12.2148 8.14161
250 2 1.95403 12.0537 7.86941
251 2 2.88839 12.0705 7.13893
249 2 3.06782 12.1937 8.30436
156 1 -7.59157 -11.8179 9.29246
155 1 -6.46883 -11.8143 9.00396
154 1 -5.39384 -11.88 8.82601
199 1 -1.49701 -11.9634 9.03525
198 1 -2.27715 -12.1288 9.83495
2 1 1.25987 -11.9899 9.0275
3 1 1.98787 -12.01 9.91493
48 1 4.12528 -12.0394 8.77644
47 1 5.24977 -11.9759 9.13345
46 1 6.36681 -11.9735 9.49474
45 1 7.44836 -11.9425 9.93963
158 1 -9.67572 -11.6327 10.1168
157 1 -8.60254 -11.6996 9.74261
357 2 -8.60151 12.3806 9.9743
356 2 -7.46622 12.3385 9.75214
355 2 -6.35295 12.4149 9.48845
354 2 -5.28413 12.2812 9.04643
399 2 -1.5434 12.2844 8.96131
398 2 -2.27909 12.1863 9.80025
202 2 1.27905 12.144 9.0811
203 2 2.03201 11.871 9.93767
248 2 4.11843 12.0683 8.73414
247 2 5.2679 12.0025 9.01155
246 2 6.24784 12.0794 9.47889
245 2 7.36354 12.1335 9.87123
197 1 -2.96985 -12.2571 10.7106
196 1 -3.62681 -12.4258 11.5804
4 1 2.73703 -12.0771 10.7904
5 1 3.44148 -12.1638 11.6098
44 1 8.56202 -11.8901 10.3111
43 1 9.61413 -11.8113 10.727
42 1 10.5733 -11.9072 11.2641
41 1 11.6851 -11.9492 11.6097
161 1 -12.8298 -11.6211 11.3778
160 1 -11.762 -11.7122 11.0067
159 1 -10.699 -11.6402 10.6102
205 2 3.41011 11.7907 11.6519
361 2 -12.6901 12.4605 11.5619
360 2 -11.7134 12.3844 11.0595
359 2 -10.6894 12.2429 10.6238
358 2 -9.62945 12.1925 10.2432
397 2 -3.09542 12.2495 10.5167
396 2 -3.91012 12.4477 11.237
204 2 2.68787 11.8336 10.8417
244 2 8.4048 12.0893 10.3195
243 2 9.41494 12.0738 10.7596
242 2 10.4302 12.0782 11.2729
241 2 11.5281 12.1597 11.7396
195 1 -4.42373 -12.3419 12.4364
194 1 -5.21579 -12.3509 13.1803
6 1 4.27515 -12.1406 12.2405
7 1 4.89558 -12.2078 13.0829
40 1 12.7005 -12.0397 12.0527
39 1 13.7658 -12.028 12.482
38 1 14.7017 -11.9882 13.0237
165 1 -16.798 -11.6182 13.1391
164 1 -15.883 -11.5502 12.5606
162 1 -13.84 -11.6582 11.9055
163 1 -14.8819 -11.7313 12.2441
206 2 4.1259 11.7164 12.4787
207 2 4.94848 11.7367 13.2009
365 2 -16.8512 12.6731 13.1663
364 2 -15.8122 12.7968 12.7375
362 2 -13.7356 12.5666 11.9601
363 2 -14.8187 12.6676 12.2564
394 2 -5.30532 12.4184 12.9506
395 2 -4.71893 12.4885 12.0406
240 2 12.5366 12.3452 12.1412
239 2 13.5519 12.274 12.4833
238 2 14.5515 12.1949 12.8989
192 1 -6.80337 -12.7291 14.7507
193 1 -5.9919 -12.5953 13.9826
8 1 5.63859 -12.2918 13.8983
9 1 6.20884 -12.5194 14.7578
37 1 15.6463 -12.0267 13.5845
36 1 16.6104 -11.8984 13.9992
35 1 17.5133 -11.9557 14.582
167 1 -18.5816 -11.5972 14.2036
168 1 -19.4363 -11.5234 14.9045
166 1 -17.7964 -11.4859 13.5334
208 2 5.62067 11.7523 14.1379
367 2 -18.7153 12.654 14.1725
368 2 -19.5972 12.8554 14.6926
366 2 -17.7808 12.8022 13.7265
392 2 -6.79747 12.6796 14.6345
393 2 -5.97725 12.6319 13.8394
209 2 6.35497 11.8881 14.9367
237 2 15.4817 12.4058 13.4456
236 2 16.4537 12.444 13.9588
235 2 17.3227 12.2704 14.5133
234 2 18.2569 12.4946 14.9477
190 1 -8.46994 -12.7805 16.1943
191 1 -7.62463 -12.7519 15.4877
10 1 6.98299 -12.2501 15.5108
11 1 7.82275 -12.2544 16.1737
34 1 18.4501 -11.913 15.1509
33 1 19.3095 -11.8555 15.7771
32 1 20.1398 -11.9207 16.4912
169 1 -20.2136 -11.3742 15.6003
170 1 -21.1462 -11.509 16.1275
369 2 -20.2027 12.8425 15.4938
370 2 -20.8685 12.8307 16.296
390 2 -8.40515 12.7713 16.1115
391 2 -7.64705 12.694 15.2913
210 2 7.05688 11.8742 15.8025
233 2 19.0553 12.4085 15.6625
232 2 19.8058 12.3542 16.3291
188 1 -10.1107 -12.5488 17.4598
189 1 -9.24842 -12.617 16.802
12 1 8.60111 -12.1686 16.8665
13 1 9.37312 -12.0272 17.641
14 1 10.3391 -11.9969 18.0674
31 1 20.7928 -12.0422 17.31
30 1 21.5457 -12.0659 18.0558
171 1 -21.6379 -11.3457 16.9878
172 1 -22.308 -11.3723 17.7988
211 2 7.78377 11.7888 16.5836
212 2 8.6154 11.7317 17.2607
213 2 9.31847 11.7955 18.0391
371 2 -21.5802 13.0344 17.0351
372 2 -22.1758 12.7054 17.7591
388 2 -9.99565 12.7581 17.487
389 2 -9.2385 12.7406 16.8198
231 2 20.5994 12.4089 16.9382
230 2 20.9354 12.3709 17.8798
184 1 -13.622 -12.5939 19.5782
185 1 -12.7035 -12.6681 19.0859
186 1 -11.7112 -12.5347 18.7749
187 1 -10.8524 -12.4801 18.19
15 1 11.0969 -11.9344 18.8713
16 1 11.8681 -11.8152 19.5525
28 1 22.2408 -12.4944 19.5538
173 1 -22.4336 -11.3396 18.8095
29 1 21.8908 -11.6648 19.0119
214 2 10.1702 11.675 18.6752
215 2 11.1564 11.7104 19.1337
373 2 -22.3713 12.2406 18.6676
374 2 -21.8652 12.4344 19.5741
385 2 -12.4467 12.7626 19.423
386 2 -11.5043 12.7999 18.9716
387 2 -10.696 12.781 18.2449
229 2 21.6067 12.2451 18.6903
228 2 21.8682 12.1367 19.6566
175 1 -21.6421 -12.1226 20.2135
176 1 -21.0483 -12.574 20.8802
177 1 -20.2753 -12.0223 21.2524
180 1 -17.3725 -12.1456 20.9654
182 1 -15.4446 -12.5442 20.5157
181 1 -16.3776 -12.3546 21.0017
183 1 -14.5943 -12.5488 19.925
17 1 12.6003 -12.1247 20.1907
18 1 13.2852 -11.9935 20.9204
19 1 14.2608 -12.3082 21.0532
26 1 21.109 -12.3817 21.2226
27 1 21.8157 -12.482 20.4755
174 1 -22.4424 -11.755 19.7321
375 2 -21.9729 12.8178 20.4574
376 2 -21.0886 12.7988 21.0194
377 2 -20.0425 13.1781 20.9802
378 2 -19.1463 12.6893 21.1033
379 2 -18.1734 12.498 20.8902
380 2 -17.2474 12.2681 21.254
381 2 -16.2069 12.5216 21.1165
382 2 -15.2605 12.6581 20.7066
383 2 -14.2844 12.8123 20.443
384 2 -13.3826 12.8332 19.8836
216 2 12.0205 11.8483 19.7532
217 2 12.9313 12.0951 20.1719
218 2 13.8042 12.0764 20.7591
219 2 14.7932 12.0408 21.1531
227 2 21.6735 12.3044 20.6477
178 1 -19.2036 -12.1559 21.2787
179 1 -18.2527 -12.4792 21.3633
20 1 15.2434 -12.4402 21.3522
21 1 16.2355 -12.5742 21.7036
22 1 17.2725 -12.3719 21.6496
24 1 19.2266 -12.3512 21.7722
23 1 18.2592 -12.5194 21.6808
25 1 20.1789 -12.1107 21.4244
220 2 15.5201 12.7132 21.4991
221 2 16.5311 12.6306 21.6817
222 2 17.4861 12.3858 21.8481
224 2 19.4041 12.068 21.8287
223 2 18.44 12.2258 21.5806
225 2 20.3269 12.0718 21.4741
226 2 21.3452 11.9169 21.5195
ITEM: TIMESTEP
5000
ITEM: NUMBER OF ATOMS
400
ITEM: BOX BOUNDS ff ff ff
-3.7000000000000000e+01 3.7000000000000000e+01
-3.7000000000000000e+01 3.7000000000000000e+01
-3.7000000000000000e+01 3.7000000000000000e+01
ITEM: ATOMS id type x y z
106 1 -4.42941 -12.0107 -29.3521
107 1 -5.47811 -12.0674 -29.3228
104 1 -2.5507 -11.8149 -30.0871
103 1 -1.59314 -12.1521 -29.9798
102 1 -0.67342 -12.2524 -30.4085
101 1 0.369509 -12.193 -30.471
100 1 1.40392 -12.3127 -30.4772
99 1 2.43076 -12.2255 -30.5673
98 1 3.39546 -11.9678 -30.427
97 1 4.08845 -12.6945 -30.1568
96 1 5.08598 -12.9706 -29.9705
95 1 5.95028 -13.2081 -29.51
94 1 7.01954 -13.1418 -29.616
93 1 7.99209 -12.839 -29.2931
105 1 -3.47644 -11.7834 -29.5874
302 2 -1.1549 11.4387 -30.6965
303 2 -2.14085 11.7016 -30.6104
301 2 -0.219359 11.5707 -30.2681
300 2 0.804158 11.5742 -30.0887
299 2 1.75665 11.4365 -30.443
298 2 2.69187 11.0658 -30.1756
297 2 3.70337 10.7998 -30.1405
296 2 4.73674 10.9384 -29.8945
294 2 6.62289 11.2515 -29.1832
295 2 5.6775 11.196 -29.505
293 2 7.68923 11.0973 -29.2628
308 2 -6.75125 12.573 -29.3353
307 2 -5.93891 12.4365 -29.9485
305 2 -4.00665 12.4998 -30.3636
306 2 -4.95681 12.4469 -30.1042
304 2 -3.06486 12.0222 -30.2502
108 1 -6.46479 -12.0789 -28.9544
92 1 8.95964 -12.8552 -29.0289
91 1 9.32678 -12.9383 -28.0394
90 1 10.2506 -12.7753 -27.6803
110 1 -8.16839 -11.7119 -27.8611
109 1 -7.38644 -11.7293 -28.5415
292 2 8.49768 11.2646 -28.5736
291 2 9.30378 11.4213 -28.0475
312 2 -10.5264 12.4 -27.8843
311 2 -9.5908 12.1857 -28.3119
310 2 -8.65166 12.371 -28.6374
309 2 -7.68523 12.5701 -28.8992
89 1 11.0685 -12.8382 -27.0822
88 1 11.5906 -12.649 -26.1696
114 1 -11.4342 -11.4725 -26.1842
113 1 -10.9886 -11.7022 -27.1089
112 1 -10.0179 -11.7387 -27.457
111 1 -9.08145 -11.4273 -27.4261
290 2 10.1829 11.3216 -27.5083
289 2 10.8892 10.954 -26.8608
288 2 11.7927 11.0993 -26.6538
314 2 -12.148 12.5751 -26.634
313 2 -11.2449 12.5322 -27.1582
87 1 12.5037 -12.4593 -25.7771
86 1 13.3677 -12.4373 -25.26
85 1 14.1762 -12.2754 -24.5388
115 1 -12.2392 -11.5846 -25.5622
116 1 -12.8703 -11.7213 -24.8268
287 2 12.5083 11.1694 -25.9246
286 2 13.2311 11.0553 -25.1635
285 2 13.9499 11.2696 -24.427
315 2 -12.5383 12.4242 -25.6606
316 2 -13.314 12.4654 -24.9254
118 1 -13.7799 -11.8868 -23.0255
84 1 14.72 -12.2866 -23.6121
117 1 -13.2885 -11.5419 -23.9329
284 2 14.2984 11.4378 -23.487
317 2 -13.7707 12.2201 -24.0648
318 2 -14.5714 12.1512 -23.3064
119 1 -14.1126 -12.0161 -22.0487
83 1 15.2855 -12.29 -22.7145
82 1 15.5209 -12.7297 -21.7938
283 2 14.9427 11.5372 -22.6398
282 2 15.3652 11.6839 -21.6555
319 2 -14.9894 12.2966 -22.3424
320 2 -15.463 12.1101 -21.4581
121 1 -14.9577 -12.0294 -20.2003
120 1 -14.5919 -11.8217 -21.1377
81 1 15.6918 -12.6096 -20.7347
80 1 15.8434 -12.6194 -19.7061
321 2 -15.7145 11.4281 -20.6508
281 2 15.6594 11.7878 -20.6602
122 1 -15.3077 -12.0206 -19.2953
123 1 -15.656 -11.9511 -18.3132
79 1 15.7889 -12.76 -18.6344
322 2 -15.9959 11.422 -19.6467
323 2 -16.1086 11.6739 -18.6887
279 2 16.1054 11.7738 -18.6095
280 2 15.9259 11.9356 -19.6304
124 1 -15.9947 -11.9374 -17.3423
78 1 16.171 -12.7539 -17.6362
77 1 16.1276 -12.6407 -16.6306
324 2 -16.1175 11.6605 -17.639
325 2 -16.2266 11.7589 -16.5767
278 2 16.0165 11.4793 -17.6332
277 2 16.079 11.8348 -16.6501
125 1 -16.139 -12.0925 -16.3923
126 1 -16.356 -12.0512 -15.3676
76 1 16.0801 -12.692 -15.5735
326 2 -16.1548 11.7816 -15.4876
276 2 15.9203 11.7516 -15.6487
127 1 -16.0852 -11.9033 -14.343
128 1 -15.6421 -11.8972 -13.4113
75 1 15.8203 -12.6591 -14.5145
74 1 15.9415 -12.3867 -13.4809
327 2 -15.7299 11.4935 -14.5631
328 2 -15.5352 11.6122 -13.5694
275 2 15.9443 11.7335 -14.576
274 2 15.8487 11.7119 -13.5433
129 1 -15.4179 -12.0533 -12.3463
73 1 15.8877 -12.1634 -12.485
329 2 -15.3294 11.7797 -12.5491
273 2 15.863 11.6821 -12.4729
130 1 -15.0134 -12.1194 -11.3403
131 1 -14.5278 -12.2078 -10.4095
72 1 15.6686 -12.1626 -11.486
71 1 15.4652 -12.1331 -10.4955
271 2 15.1144 11.75 -10.5222
330 2 -14.9799 11.8494 -11.5972
331 2 -14.5024 12.0153 -10.6779
272 2 15.4069 11.8793 -11.4725
132 1 -14.1173 -12.2187 -9.45411
70 1 15.3501 -12.3202 -9.41388
332 2 -14.0415 12.063 -9.66284
333 2 -13.6513 12.1879 -8.66341
270 2 14.6965 11.8304 -9.58365
133 1 -13.6414 -12.3854 -8.53701
134 1 -13.0532 -12.1865 -7.64305
69 1 14.9306 -12.2782 -8.43006
68 1 14.3669 -12.3602 -7.49783
269 2 14.461 11.7602 -8.57068
268 2 13.9487 11.7299 -7.65895
334 2 -13.109 12.1464 -7.77127
135 1 -12.4905 -12.186 -6.64261
136 1 -11.6873 -12.2694 -5.83015
66 1 13.3488 -12.4134 -5.64424
67 1 13.9247 -12.3456 -6.51366
266 2 12.8327 11.737 -5.74379
335 2 -12.5282 12.08 -6.79028
336 2 -12.0256 12.115 -5.77915
267 2 13.4734 11.8141 -6.64731
137 1 -11.3552 -12.3536 -4.77826
65 1 12.8262 -12.2927 -4.71609
337 2 -11.3893 12.2886 -4.91511
265 2 12.2691 11.8245 -4.78421
138 1 -10.833 -12.4023 -3.80014
139 1 -10.4664 -12.4139 -2.79364
63 1 11.5828 -12.3883 -2.92798
64 1 12.2213 -12.335 -3.82943
338 2 -10.963 12.2142 -3.87914
339 2 -10.4231 12.1014 -2.87272
264 2 11.7286 11.8641 -3.83255
263 2 11.1126 11.8601 -2.94056
140 1 -9.89854 -12.2969 -1.87086
141 1 -9.30897 -12.4658 -0.943586
61 1 10.229 -12.2375 -1.17659
62 1 10.9748 -12.2401 -2.03386
340 2 -9.8172 12.1363 -1.89771
341 2 -9.25225 12.3087 -0.958337
261 2 9.7382 11.8305 -1.25489
262 2 10.4023 11.958 -2.10317
142 1 -8.67719 -12.3009 -0.0191613
59 1 8.81953 -12.2886 0.52501
60 1 9.54952 -12.205 -0.309508
260 2 9.01585 11.7752 -0.453589
342 2 -8.59002 12.2251 -0.0608093
343 2 -7.85382 12.1574 0.756823
259 2 8.41744 11.8779 0.467858
143 1 -7.83864 -12.2555 0.802062
144 1 -7.12721 -12.3357 1.65575
57 1 7.23533 -12.3698 2.08502
58 1 7.99942 -12.4039 1.25811
344 2 -7.08516 12.2167 1.5986
345 2 -6.20096 12.2016 2.32518
257 2 6.96814 12.0247 2.04053
258 2 7.81456 11.8807 1.37536
145 1 -6.4008 -12.2063 2.48781
146 1 -5.67914 -12.307 3.33856
56 1 6.49438 -12.3275 2.88153
55 1 5.67596 -12.397 3.64708
346 2 -5.52399 12.1722 3.22452
255 2 5.49791 11.9125 3.60138
256 2 6.26279 11.9606 2.82613
147 1 -4.99291 -12.2592 4.19932
148 1 -4.19283 -12.1908 5.02244
54 1 4.96078 -12.3215 4.41083
53 1 4.24786 -12.1095 5.2436
347 2 -4.68756 12.0127 3.97793
348 2 -3.89219 12.0975 4.79431
253 2 4.01172 12.1378 5.15447
254 2 4.76482 12.0437 4.37094
149 1 -3.41099 -12.1226 5.87269
150 1 -2.58095 -12.1543 6.70333
52 1 3.45129 -12.1249 6.03857
51 1 2.65842 -12.1071 6.83311
349 2 -3.20207 12.1487 5.63347
350 2 -2.49457 12.1605 6.51062
251 2 2.3345 12.3178 6.77569
252 2 3.19049 12.2136 5.97723
154 1 -4.81386 -11.9636 8.49216
153 1 -3.8089 -12.025 8.04566
152 1 -2.78321 -12.1787 7.7013
151 1 -1.74611 -12.1743 7.41611
199 1 -1.36441 -12.2694 8.56523
200 1 -0.58037 -12.1641 7.80816
1 1 0.652541 -12.0836 7.87341
50 1 1.83911 -12.0828 7.56638
49 1 2.8344 -12.1949 8.03345
48 1 3.79156 -12.2223 8.58641
354 2 -4.91451 12.284 8.59719
353 2 -3.85768 12.3284 8.20677
352 2 -2.82879 12.3272 7.83329
351 2 -1.86713 12.1853 7.43962
399 2 -1.45724 12.3486 8.64822
400 2 -0.746353 12.2225 7.87308
201 2 0.442369 12.2243 7.95294
250 2 1.54795 12.2816 7.53367
249 2 2.44344 12.452 8.05686
248 2 3.43193 12.4513 8.60135
158 1 -8.98453 -11.8358 9.82361
157 1 -7.91523 -11.8417 9.5293
156 1 -6.89038 -11.8464 9.10141
197 1 -2.829 -12.5818 10.0567
198 1 -2.22873 -12.4449 9.20317
2 1 1.27327 -12.3855 8.7305
3 1 2.0609 -12.1864 9.42376
4 1 2.91665 -12.2352 10.0319
47 1 4.71406 -12.186 9.10727
46 1 5.70023 -12.0143 9.53072
45 1 6.65212 -11.9866 9.89721
155 1 -5.89208 -11.7865 8.70035
358 2 -9.06162 12.3095 9.95333
357 2 -7.99128 12.5183 9.71488
356 2 -6.96737 12.5543 9.29663
355 2 -5.92528 12.5099 8.89584
398 2 -2.082 12.738 9.37981
202 2 1.07314 12.1164 8.79361
203 2 1.63966 12.1499 9.6983
247 2 4.50557 12.4493 8.91113
246 2 5.51065 12.4815 9.45434
245 2 6.54829 12.2969 9.69632
244 2 7.56872 12.3007 10.023
163 1 -13.8266 -12.0673 11.7851
161 1 -11.8528 -12.0471 11.1895
162 1 -12.8321 -11.8414 11.5523
160 1 -10.8262 -11.9261 10.806
195 1 -4.42076 -12.7053 11.5417
196 1 -3.57262 -12.6226 10.8465
5 1 3.65766 -12.1791 10.7539
6 1 4.34894 -12.2741 11.5766
44 1 7.68037 -11.9622 10.3884
43 1 8.67763 -11.999 10.8256
42 1 9.64798 -11.9206 11.3037
41 1 10.6025 -11.8478 11.7524
159 1 -9.91999 -11.7936 10.2772
361 2 -11.8403 12.6979 11.2985
362 2 -12.8995 12.8163 11.6984
360 2 -11.0201 12.3537 10.754
359 2 -10.0154 12.1325 10.4972
397 2 -2.56629 12.7591 10.3957
396 2 -3.36191 12.7512 11.1489
204 2 2.36028 11.9888 10.5255
205 2 3.11664 11.8788 11.2556
243 2 8.63993 12.2802 10.3847
242 2 9.43232 12.3644 11.0849
241 2 10.4429 12.5916 11.5399
164 1 -14.8379 -11.9743 12.2439
193 1 -5.8458 -12.9655 13.0311
194 1 -5.17517 -12.8362 12.2242
7 1 5.00638 -12.3861 12.3862
8 1 5.60257 -12.573 13.2458
166 1 -16.7169 -11.5977 13.1525
165 1 -15.8264 -11.7727 12.6232
40 1 11.5393 -11.7566 12.2181
39 1 12.4951 -11.7395 12.681
38 1 13.3932 -11.7314 13.1711
206 2 3.69948 11.791 12.1801
207 2 4.59011 11.7065 12.7751
365 2 -15.5824 12.4475 13.228
364 2 -14.6583 12.7731 12.9028
363 2 -13.7556 12.6464 12.3671
393 2 -5.86076 12.6336 13.1519
394 2 -4.9067 12.8577 12.6671
395 2 -4.1939 12.7442 11.8858
240 2 11.3452 12.8074 11.9868
239 2 12.2548 12.6983 12.488
238 2 13.0101 12.5429 13.2295
191 1 -7.31356 -12.8345 14.6349
192 1 -6.6139 -12.9031 13.8309
9 1 6.30515 -12.3634 13.9956
168 1 -18.3514 -11.6892 14.3507
167 1 -17.4719 -11.6278 13.8231
37 1 14.267 -11.71 13.7353
36 1 15.1905 -11.7827 14.3303
35 1 16.219 -11.7655 14.6186
208 2 5.29598 11.5136 13.6032
209 2 6.15939 11.6351 14.1977
210 2 6.99792 11.7546 14.8085
368 2 -18.3276 12.6052 14.8901
367 2 -17.4782 12.6872 14.2378
366 2 -16.5905 12.5782 13.6268
391 2 -7.28227 12.8207 14.608
392 2 -6.5537 12.7775 13.8847
237 2 13.7822 12.2289 13.8958
236 2 14.554 12.4112 14.5627
188 1 -9.87506 -12.8781 16.4847
189 1 -9.04714 -12.855 15.8358
190 1 -8.15145 -12.8526 15.2856
10 1 6.7342 -12.3022 14.9756
11 1 7.56957 -12.4545 15.4875
12 1 8.22845 -12.7078 16.2945
33 1 17.9157 -11.9868 15.6482
32 1 18.857 -12.1205 15.9287
170 1 -19.9128 -11.505 15.7367
169 1 -19.1663 -11.5967 15.0102
34 1 17.1511 -11.6801 15.038
370 2 -19.9173 12.7163 16.1098
369 2 -19.1715 12.6882 15.4464
388 2 -9.8205 12.7519 16.4937
389 2 -8.97844 12.9865 15.8538
390 2 -8.07175 12.8302 15.3055
211 2 7.82629 12.0176 15.4553
212 2 8.75871 11.9661 16.0684
235 2 15.5327 12.3959 14.9968
234 2 16.4885 12.0761 15.1525
233 2 17.2091 12.1555 15.8791
232 2 18.1035 11.9551 16.3755
171 1 -20.1869 -11.8214 16.6654
185 1 -12.4403 -12.5878 18.0037
186 1 -11.5173 -12.6174 17.6229
187 1 -10.7054 -12.5884 17.0111
13 1 8.82553 -12.6079 17.1336
14 1 9.70416 -12.4882 17.7743
31 1 19.3495 -12.4059 16.8036
30 1 19.948 -12.3585 17.5816
172 1 -20.9281 -11.423 17.2576
231 2 18.9182 11.7612 17.0187
230 2 19.4417 11.5069 17.8634
371 2 -20.8335 12.5637 16.5595
372 2 -20.7284 12.6762 17.5611
386 2 -11.3132 12.7395 17.9915
387 2 -10.6203 12.6531 17.1985
213 2 9.6121 12.1062 16.6971
214 2 10.5116 12.0427 17.142
215 2 11.1743 12.1765 17.9205
183 1 -14.09 -12.2215 19.1563
184 1 -13.2478 -12.3718 18.5818
15 1 10.5363 -12.3615 18.3885
16 1 11.2414 -12.3772 19.2165
28 1 20.8148 -11.8509 19.2626
29 1 20.1059 -12.2809 18.5923
173 1 -21.4737 -11.4724 18.1766
174 1 -21.2745 -11.2188 19.1555
175 1 -20.2917 -11.1654 19.3949
229 2 20.1664 11.4389 18.6396
228 2 20.7981 11.2753 19.4619
373 2 -20.9853 12.248 18.4427
374 2 -21.1462 12.3999 19.4302
383 2 -14.0234 12.788 19.4144
385 2 -12.1417 12.8839 18.5026
384 2 -13.1307 12.9813 18.9104
216 2 12.0345 12.1657 18.4335
217 2 12.863 12.1865 19.048
180 1 -16.6365 -12.0808 20.2227
181 1 -15.6887 -12.3925 20.3404
182 1 -14.8976 -12.0517 19.782
17 1 12.1355 -12.4221 19.7628
18 1 13.135 -12.3202 19.7869
19 1 14.0678 -12.4041 20.2437
20 1 15.0423 -12.3827 20.5285
21 1 15.9429 -12.1365 20.9973
26 1 20.0648 -13.2776 20.4728
27 1 20.5177 -12.717 19.7357
176 1 -19.7872 -11.7432 20.0499
177 1 -19.236 -11.5254 20.9155
179 1 -17.4633 -11.6756 20.7104
227 2 21.4245 11.27 20.2182
375 2 -21.2837 12.8479 20.3515
376 2 -20.6213 12.3981 20.9518
377 2 -19.6794 12.156 21.2038
378 2 -18.7039 12.3756 21.167
379 2 -17.7144 12.6413 21.0505
380 2 -16.9383 12.7334 20.4339
381 2 -15.9273 12.5713 20.3474
382 2 -14.9132 12.7327 20.0401
218 2 13.6806 12.2692 19.7177
219 2 14.6315 12.3629 20.0867
220 2 15.3852 12.7714 20.6601
221 2 16.3675 12.6387 20.7876
222 2 17.3194 12.3541 21.1937
226 2 21.0025 12.0389 20.6683
22 1 16.8012 -11.9877 21.4292
23 1 17.7716 -12.2751 21.5593
24 1 18.6833 -12.7737 21.706
25 1 19.5468 -13.0895 21.283
178 1 -18.3012 -11.7049 21.3201
224 2 19.1897 11.5999 21.4329
225 2 20.2057 11.7633 21.2758
223 2 18.3694 12.2669 21.3615
ITEM: TIMESTEP
6000
ITEM: NUMBER OF ATOMS
400
ITEM: BOX BOUNDS ff ff ff
-3.7000000000000000e+01 3.7000000000000000e+01
-3.7000000000000000e+01 3.7000000000000000e+01
-3.7000000000000000e+01 3.7000000000000000e+01
ITEM: ATOMS id type x y z
98 1 3.26238 -12.7801 -30.7644
106 1 -4.58855 -12.1734 -29.1458
104 1 -2.58067 -12.1114 -29.3657
105 1 -3.55472 -12.0247 -29.3724
103 1 -1.58297 -12.2282 -29.4882
102 1 -0.627396 -12.1389 -29.7364
101 1 0.342194 -12.2749 -30.1349
100 1 1.28669 -12.6984 -30.2787
99 1 2.25621 -12.7732 -30.5503
97 1 4.2182 -12.9905 -30.4619
96 1 5.15006 -12.9135 -30.1606
95 1 6.10647 -12.3846 -29.9244
94 1 6.85698 -12.3317 -29.2537
307 2 -5.75529 11.7193 -29.2617
305 2 -3.89451 11.6449 -29.7648
304 2 -2.94732 11.3802 -30.2348
302 2 -1.02398 11.6791 -30.2305
303 2 -2.04481 11.7717 -30.3448
301 2 -0.0137744 11.6266 -30.4212
300 2 1.00883 11.4541 -30.2682
299 2 2.01717 11.6801 -30.1962
298 2 3.02338 11.7039 -30.3163
297 2 3.7984 11.6595 -29.6216
296 2 4.74889 11.4905 -29.5139
308 2 -6.66014 12.1719 -29.1711
306 2 -4.87458 11.9547 -29.7952
107 1 -5.62657 -12.1755 -28.9365
93 1 7.74537 -12.7188 -28.9518
92 1 8.52989 -12.6111 -28.2817
110 1 -8.19533 -11.1831 -27.9551
109 1 -7.2413 -11.3538 -28.1851
108 1 -6.34244 -11.6282 -28.4529
294 2 6.44828 11.7007 -28.3876
295 2 5.6385 11.3458 -28.9952
293 2 7.47867 11.511 -28.3259
292 2 8.51574 11.4822 -28.2188
291 2 9.57744 11.628 -28.0989
290 2 10.4566 11.474 -27.5894
311 2 -9.16826 12.1379 -27.805
310 2 -8.26421 12.3763 -28.1148
309 2 -7.37583 12.1166 -28.4385
91 1 9.10843 -12.7085 -27.4529
90 1 10.0773 -12.6824 -27.1261
89 1 10.7838 -12.4826 -26.3873
113 1 -10.4357 -11.0154 -26.353
112 1 -9.82469 -11.0579 -27.1167
111 1 -9.07623 -11.5234 -27.5191
289 2 11.3652 11.1997 -27.1848
288 2 12.0395 11.3024 -26.4466
313 2 -10.8271 12.4457 -26.6821
312 2 -10.0229 12.1312 -27.2857
88 1 11.6111 -12.6934 -25.7656
87 1 12.4387 -13.1302 -25.2793
86 1 12.8099 -12.4815 -24.5508
114 1 -11.314 -11.3765 -25.8194
115 1 -11.7446 -11.3696 -24.8691
287 2 12.7279 11.3859 -25.6967
286 2 13.2258 11.3701 -24.8437
315 2 -11.8534 12.2929 -24.9198
316 2 -12.7845 12.1869 -24.5661
314 2 -11.3673 12.5207 -25.7744
85 1 13.6446 -12.7696 -24.0374
84 1 14.0768 -12.944 -23.1663
116 1 -12.4046 -11.3507 -24.0458
117 1 -13.1635 -11.3312 -23.3504
317 2 -13.4074 11.7659 -23.8139
285 2 13.405 11.3642 -23.8
284 2 13.9026 11.6779 -22.9423
318 2 -14.1028 11.8652 -23.0465
83 1 14.4846 -12.6272 -22.291
82 1 14.8593 -12.616 -21.3845
118 1 -13.5533 -11.2005 -22.4202
119 1 -13.6632 -11.3543 -21.3594
319 2 -14.6457 11.9137 -22.1872
283 2 13.8762 11.9891 -21.9875
81 1 15.1301 -12.6238 -20.3605
120 1 -14.3093 -11.6341 -20.5736
321 2 -14.6604 11.7529 -20.1199
281 2 14.6988 11.6594 -20.2002
320 2 -14.7188 11.8487 -21.1423
282 2 14.4307 11.9068 -21.0819
80 1 15.2267 -12.4035 -19.3303
79 1 15.1317 -12.4347 -18.2856
122 1 -15.0443 -11.7814 -18.7141
121 1 -14.583 -11.7504 -19.6512
322 2 -14.7665 11.8668 -19.0855
280 2 14.6841 11.864 -19.1463
279 2 14.9897 12.1766 -18.1296
78 1 14.9915 -12.5921 -17.2794
123 1 -15.3125 -11.787 -17.7289
124 1 -15.6715 -11.3715 -16.8331
324 2 -14.7656 11.806 -17.151
323 2 -14.6027 11.8791 -18.0928
278 2 14.9153 12.1067 -17.0768
77 1 15.0679 -12.4572 -16.2904
76 1 15.3622 -12.294 -15.3109
125 1 -15.4621 -11.3982 -15.8079
325 2 -14.7987 11.7441 -16.1257
326 2 -14.9135 11.7789 -15.0672
277 2 14.9324 11.8645 -16.0993
276 2 15.1066 12.0924 -15.1169
126 1 -15.2938 -11.8145 -14.9318
127 1 -14.9097 -11.9548 -14.0093
75 1 15.5001 -12.1162 -14.3283
74 1 15.0979 -12.466 -13.4483
327 2 -14.5098 12.0758 -14.1433
275 2 14.7782 12.1075 -14.1382
128 1 -14.7547 -12.0002 -13.0109
129 1 -14.6305 -12.0981 -11.9854
73 1 14.8366 -12.5977 -12.4183
328 2 -13.9314 12.1686 -13.3089
329 2 -13.7396 11.9167 -12.3425
274 2 14.6294 11.8805 -13.1574
273 2 14.5658 12.1271 -12.1663
130 1 -14.2927 -11.9826 -11.0196
72 1 14.54 -12.511 -11.4073
71 1 14.3209 -12.6046 -10.4038
330 2 -13.4351 11.8492 -11.3408
331 2 -13.1707 12.1672 -10.3939
272 2 14.4992 11.9623 -11.0931
131 1 -14.1638 -12.1279 -9.99907
132 1 -13.5994 -12.1481 -9.00161
70 1 13.8005 -12.5901 -9.46091
332 2 -12.9152 12.3405 -9.37252
271 2 14.089 12.1486 -10.1253
270 2 13.7285 11.9645 -9.15423
133 1 -13.2292 -12.318 -7.99945
134 1 -12.5578 -12.1721 -7.19586
68 1 12.8584 -12.7074 -7.57942
69 1 13.4041 -12.5895 -8.45887
268 2 12.9145 11.7571 -7.32724
269 2 13.5337 11.7982 -8.18006
333 2 -12.358 12.2445 -8.5082
334 2 -12.0188 12.1836 -7.43536
135 1 -12.1667 -12.2755 -6.23429
66 1 11.7538 -12.717 -5.74343
67 1 12.2924 -12.7271 -6.68457
266 2 11.9454 11.5382 -5.51233
267 2 12.4677 11.8002 -6.38859
335 2 -11.5876 12.3369 -6.52596
336 2 -11.1735 12.3773 -5.55363
136 1 -11.4985 -12.3946 -5.38303
137 1 -10.9151 -12.332 -4.50811
65 1 11.2051 -12.5177 -4.89401
64 1 10.5631 -12.4562 -4.10892
265 2 11.5763 11.6945 -4.55032
337 2 -10.6275 12.3742 -4.64388
138 1 -10.4306 -12.0726 -3.5562
139 1 -9.94086 -12.1611 -2.58008
63 1 10.162 -12.6617 -3.18048
264 2 11.0678 11.7392 -3.64313
263 2 10.3266 11.6984 -2.8162
338 2 -9.92876 12.2245 -3.79703
339 2 -9.34937 12.0803 -2.87196
140 1 -9.27056 -12.1804 -1.75337
141 1 -8.64689 -12.1664 -0.863214
61 1 9.10271 -12.7741 -1.3335
62 1 9.79592 -12.7363 -2.16604
261 2 9.24578 11.7518 -0.974548
262 2 9.80414 11.6918 -1.91305
340 2 -8.9721 12.0765 -1.88415
341 2 -8.18343 12.3443 -1.23581
142 1 -7.90724 -12.2593 -0.0504398
143 1 -7.24406 -12.3031 0.776744
59 1 8.1713 -12.4767 0.434984
60 1 8.62422 -12.7043 -0.442568
260 2 8.55588 11.7411 -0.199641
342 2 -7.39488 12.4308 -0.532073
343 2 -6.96176 12.2938 0.43394
259 2 7.74423 11.834 0.542663
144 1 -6.67233 -12.3456 1.73792
57 1 6.6462 -12.2301 1.99469
58 1 7.46529 -12.4707 1.24094
344 2 -6.39358 12.3739 1.36804
345 2 -5.83693 12.3117 2.25898
257 2 6.36563 12.0276 2.154
258 2 6.98887 12.0153 1.26232
145 1 -5.94375 -12.3617 2.55414
146 1 -5.156 -12.2866 3.25844
55 1 5.26494 -12.1698 3.56724
56 1 5.89635 -12.1852 2.76253
346 2 -5.28258 12.2918 3.26237
255 2 4.92538 11.9199 3.66937
256 2 5.53347 11.8379 2.83958
147 1 -4.57018 -12.4275 4.12116
148 1 -3.87836 -12.3896 4.9465
54 1 4.66235 -11.92 4.4106
53 1 3.97278 -11.7792 5.24206
347 2 -4.60142 12.1894 4.10307
348 2 -3.91291 12.3452 4.89702
253 2 3.41665 12.1931 5.14043
254 2 4.20065 12.1087 4.38485
149 1 -3.10377 -12.2812 5.71057
150 1 -2.59642 -12.2003 6.65325
51 1 2.39306 -11.8267 6.67709
52 1 3.10873 -11.7347 5.91723
349 2 -3.16774 12.4211 5.64352
350 2 -2.61405 12.428 6.5822
251 2 2.02314 12.6707 6.70326
252 2 2.71824 12.4741 5.95062
154 1 -4.66925 -12.3064 8.63975
153 1 -3.75502 -12.0407 8.21506
152 1 -2.80318 -12.112 7.68714
151 1 -1.77732 -12.0578 7.3205
199 1 -1.53264 -11.8593 8.3494
200 1 -0.731319 -11.9733 7.62529
1 1 0.458459 -12.0075 7.66794
50 1 1.57223 -11.9859 7.46291
2 1 1.09258 -12.2233 8.5025
49 1 2.52515 -11.742 7.93264
48 1 3.48308 -11.6317 8.2615
47 1 4.43964 -11.5924 8.63967
354 2 -4.82377 12.7583 8.4028
353 2 -3.88981 12.8645 7.99508
352 2 -2.87553 12.6204 7.70627
351 2 -1.85059 12.5351 7.30975
399 2 -1.53348 12.2779 8.58688
400 2 -0.841697 12.3673 7.75866
201 2 0.310122 12.3561 7.77995
250 2 1.34989 12.35 7.51335
249 2 2.3185 12.3756 7.94756
202 2 0.984946 12.0745 8.52504
248 2 3.22488 12.3731 8.41188
159 1 -9.62317 -11.9502 10.0778
158 1 -8.65397 -12.1996 9.83101
157 1 -7.6255 -12.1766 9.67798
156 1 -6.61219 -12.2526 9.38052
155 1 -5.65425 -12.2059 9.01663
197 1 -3.14817 -12.2228 9.64843
198 1 -2.29904 -11.8913 9.08846
3 1 1.89979 -12.2947 9.18567
4 1 2.61072 -11.8936 9.76551
46 1 5.38559 -11.3659 9.215
45 1 6.29406 -11.2478 9.75183
357 2 -7.67476 12.4878 9.66451
356 2 -6.65329 12.6101 9.34993
355 2 -5.68775 12.7254 8.99021
398 2 -2.10993 12.3232 9.48141
203 2 1.65457 12.0523 9.33238
204 2 2.32647 11.9921 10.1731
247 2 4.16959 12.3078 8.9052
246 2 5.11138 12.2207 9.46971
245 2 6.0048 12.1513 10.0449
163 1 -13.3442 -12.2913 11.5554
162 1 -12.473 -11.927 11.1883
161 1 -11.4284 -11.9543 10.9342
160 1 -10.5274 -12.2382 10.5096
195 1 -4.41769 -12.2957 11.1047
196 1 -3.62395 -12.5622 10.508
5 1 3.28979 -11.8744 10.5906
6 1 3.59427 -12.1261 11.5952
44 1 7.14836 -11.1837 10.392
43 1 8.01262 -11.145 11.0412
42 1 8.90916 -11.1058 11.6539
205 2 3.04637 11.7143 10.8477
206 2 3.82841 11.7087 11.5683
362 2 -12.3097 12.8627 11.5558
361 2 -11.4023 12.8946 11.0774
360 2 -10.3814 12.8324 11.0459
359 2 -9.42991 12.5803 10.6341
358 2 -8.47312 12.4938 10.3226
395 2 -4.36222 12.3791 11.6312
397 2 -2.79337 12.2336 10.2788
396 2 -3.6493 12.3513 10.8723
244 2 6.98844 12.1759 10.4036
243 2 8.00441 12.2355 10.7927
242 2 9.03086 12.3859 11.2148
241 2 9.96959 12.2819 11.6323
166 1 -15.7201 -11.8564 13.3383
164 1 -14.0494 -12.1174 12.3331
165 1 -14.9292 -11.9076 12.6936
193 1 -5.72914 -12.3667 12.6092
194 1 -5.11464 -12.0672 11.8259
7 1 4.27776 -11.9082 12.3308
8 1 5.05942 -11.997 12.9381
41 1 9.92533 -11.2991 11.8849
40 1 10.9245 -11.3525 12.174
39 1 11.8627 -11.4072 12.7282
38 1 12.5999 -11.639 13.3519
208 2 5.37185 11.7985 12.8591
365 2 -14.9501 12.6772 13.0307
364 2 -14.0878 12.5345 12.4495
363 2 -13.293 12.7597 11.8281
393 2 -5.76585 12.8188 13.0987
394 2 -5.02462 12.762 12.3393
207 2 4.50009 11.8728 12.326
240 2 10.9766 12.2066 11.9771
239 2 11.8551 12.3805 12.4701
238 2 12.8031 12.5888 12.8352
191 1 -7.38051 -12.4772 13.9586
190 1 -8.10495 -12.7089 14.6849
192 1 -6.4496 -12.3872 13.4197
9 1 5.76605 -12.0292 13.7007
10 1 6.55166 -11.9257 14.4182
35 1 15.2537 -12.018 14.5699
168 1 -17.1128 -11.1682 14.6524
167 1 -16.5436 -11.575 13.8658
37 1 13.43 -11.3989 13.9368
36 1 14.2953 -11.7941 14.257
209 2 5.88838 11.5987 13.6932
210 2 6.76596 11.7959 14.2127
368 2 -17.3335 12.8261 14.834
367 2 -16.7907 12.6618 14.0062
366 2 -15.8855 12.5149 13.5232
391 2 -7.15292 12.9996 14.6086
392 2 -6.29986 12.9833 13.981
237 2 13.5844 12.6899 13.5345
236 2 14.346 12.5846 14.1836
235 2 15.1855 12.4798 14.803
171 1 -19.1523 -11.8416 16.5082
188 1 -9.93416 -12.6141 15.7925
189 1 -9.02107 -12.7019 15.2308
11 1 7.15617 -12.4201 15.1069
12 1 7.64861 -12.3037 16.0124
13 1 8.60252 -12.4491 16.4323
33 1 16.5308 -12.6571 16.0568
34 1 15.9309 -12.2399 15.3363
32 1 17.4963 -12.8471 16.3813
170 1 -18.7603 -11.4049 15.7015
169 1 -18.0397 -11.1325 15.0483
370 2 -18.6541 12.5232 16.1255
369 2 -18.1183 12.3292 15.2674
388 2 -9.62669 12.6897 16.2664
389 2 -8.88868 13.1805 15.7061
390 2 -8.06335 13.1232 15.1198
211 2 7.55531 11.8251 14.9666
212 2 8.12966 12.1073 15.7772
213 2 9.05327 12.036 16.3281
234 2 16.0303 12.0657 15.3731
233 2 16.577 11.9057 16.2191
185 1 -11.9028 -12.2241 18.0284
186 1 -11.2179 -12.2152 17.263
187 1 -10.5074 -12.5022 16.5895
14 1 9.56198 -12.5095 16.9507
15 1 10.4349 -12.4687 17.5017
16 1 11.2604 -12.4427 18.0432
31 1 18.4416 -12.8336 16.8176
30 1 19.1173 -13.0456 17.5666
173 1 -20.2526 -11.2767 18.0601
172 1 -19.6189 -11.6845 17.3843
232 2 17.3165 11.7066 16.819
231 2 18.153 11.7125 17.3226
372 2 -20.1484 12.0105 17.3716
371 2 -19.5012 12.5605 16.7075
385 2 -12.0345 12.7464 18.039
386 2 -11.3041 12.969 17.3441
387 2 -10.4673 12.8642 16.8016
214 2 9.80749 12.3565 16.9647
215 2 10.6318 12.3758 17.5445
216 2 11.683 12.2671 17.7135
183 1 -13.5569 -12.5557 19.0691
182 1 -14.5309 -12.5235 19.4186
184 1 -12.6392 -12.6091 18.5972
17 1 12.0867 -12.0457 18.6333
18 1 12.9821 -12.3344 19.0865
28 1 20.73 -12.9958 18.7496
29 1 19.9838 -13.227 18.1428
27 1 20.4307 -12.597 19.6466
174 1 -20.9126 -11.3083 18.8121
175 1 -20.377 -11.7293 19.5879
373 2 -20.3367 11.7482 18.3111
374 2 -19.8909 11.592 19.2438
230 2 18.6046 11.6622 18.2734
229 2 19.6526 11.4567 18.1734
228 2 20.0123 11.4049 19.1189
381 2 -15.7201 12.7195 19.2658
383 2 -13.9328 13.1854 18.599
382 2 -14.7987 12.6921 18.7829
384 2 -12.9157 13.0531 18.4219
217 2 12.5073 12.0062 18.2951
218 2 13.4746 11.9903 18.7853
219 2 14.3049 12.057 19.3706
180 1 -16.1952 -12.0068 20.0166
181 1 -15.3457 -12.5931 19.9953
19 1 13.5208 -12.1935 19.9708
20 1 14.4745 -12.5563 20.1348
21 1 15.4876 -12.5951 20.4458
22 1 16.4398 -12.8564 20.6574
23 1 17.382 -12.8207 20.9256
24 1 18.3373 -12.7769 21.1332
25 1 19.2409 -13.2332 20.8887
26 1 20.0567 -13.1695 20.3424
176 1 -19.5224 -11.586 20.146
177 1 -18.7767 -10.8804 20.0355
179 1 -17.0371 -11.4724 19.7113
178 1 -17.7305 -10.8096 20.198
375 2 -20.7668 11.7298 19.7415
220 2 15.164 11.6051 19.692
224 2 18.7433 11.7 21.1241
227 2 19.9622 11.2924 20.1189
226 2 20.4406 11.4357 21.0296
376 2 -20.0747 12.4742 19.7029
377 2 -19.2639 12.5898 20.2476
378 2 -18.4081 13.1368 20.2518
379 2 -17.5646 12.6389 19.9618
380 2 -16.6094 12.8641 19.742
221 2 16.0365 11.9982 20.1638
222 2 17.0656 12.003 20.4708
223 2 18.105 11.9844 20.3328
225 2 19.6538 12.0969 20.9229
ITEM: TIMESTEP
7000
ITEM: NUMBER OF ATOMS
400
ITEM: BOX BOUNDS ff ff ff
-3.7000000000000000e+01 3.7000000000000000e+01
-3.7000000000000000e+01 3.7000000000000000e+01
-3.7000000000000000e+01 3.7000000000000000e+01
ITEM: ATOMS id type x y z
105 1 -3.267 -12.0514 -29.1993
104 1 -2.33291 -12.1591 -29.5754
103 1 -1.49414 -12.6712 -29.444
102 1 -0.573186 -13.0218 -29.2784
101 1 0.478761 -12.9943 -29.4177
100 1 1.40423 -12.7337 -29.7257
99 1 2.24264 -13.3275 -29.6469
98 1 3.20175 -13.2988 -29.7438
97 1 3.67298 -12.4937 -29.5238
96 1 4.55991 -12.8978 -29.2827
304 2 -2.76934 11.7704 -29.9472
302 2 -0.911065 11.5126 -30.4391
303 2 -1.92237 11.7403 -30.5539
301 2 -0.129193 10.9882 -30.0314
300 2 0.863316 11.237 -29.8633
299 2 1.76037 11.1355 -29.4876
298 2 2.79097 11.3714 -29.4589
306 2 -4.8087 12.186 -29.4253
305 2 -3.81533 11.9259 -29.7501
106 1 -4.19214 -12.1255 -28.9327
95 1 5.58553 -12.8294 -29.0074
94 1 6.3886 -12.8819 -28.4399
93 1 7.31527 -12.8425 -27.955
110 1 -7.66439 -11.0378 -27.7565
109 1 -6.61593 -10.7761 -27.6217
108 1 -5.8028 -11.3204 -27.9956
107 1 -4.80751 -11.5979 -28.3138
297 2 3.73773 11.1332 -29.0452
296 2 4.74871 11.0767 -28.9631
294 2 6.67243 11.6141 -28.6582
295 2 5.68878 11.4143 -28.8812
292 2 8.00791 11.5837 -27.709
310 2 -8.51376 12.4136 -27.8803
309 2 -7.57235 12.1927 -28.2792
307 2 -5.7648 12.2208 -29.1158
308 2 -6.64508 12.252 -28.6504
293 2 7.0202 11.8594 -27.7715
92 1 8.19223 -12.5162 -27.4293
91 1 9.13026 -12.6088 -27.0234
90 1 9.72997 -12.1469 -26.2949
89 1 10.7551 -12.3655 -26.1928
112 1 -9.40697 -11.1392 -26.8089
111 1 -8.61138 -10.893 -27.3985
291 2 8.96237 11.5325 -27.3634
290 2 10.0612 11.3648 -27.2562
289 2 10.6426 11.3893 -26.4404
288 2 11.6263 11.2928 -26.3586
311 2 -8.92261 12.8125 -27.0196
312 2 -9.89359 12.7849 -26.6765
88 1 11.4602 -12.7475 -25.5249
87 1 12.1626 -12.7334 -24.804
114 1 -10.5951 -11.4542 -25.1528
115 1 -11.3586 -11.5562 -24.4598
113 1 -9.92511 -11.4037 -25.9543
287 2 12.3822 11.6728 -25.7735
286 2 12.8113 11.4726 -24.8606
315 2 -12.4422 12.4402 -24.982
313 2 -10.6064 12.7241 -25.902
314 2 -11.4757 12.4233 -25.3809
86 1 12.762 -13.256 -24.1018
85 1 13.1455 -12.7317 -23.275
116 1 -11.9406 -10.9639 -23.8444
117 1 -12.3528 -11.2474 -22.9364
285 2 12.9191 11.7427 -23.8929
284 2 13.5414 11.7867 -23.0981
316 2 -12.8156 12.5062 -24.0168
317 2 -13.2697 12.2498 -23.2001
84 1 13.8774 -12.8581 -22.5363
83 1 14.1974 -12.3623 -21.683
118 1 -12.9473 -11.1219 -22.1379
318 2 -13.4758 12.2898 -22.2408
319 2 -13.9191 12.4891 -21.3168
283 2 13.8776 12.2139 -22.2232
82 1 13.9507 -12.6582 -20.7784
81 1 14.0285 -12.5945 -19.7222
120 1 -13.4941 -11.6167 -20.2045
119 1 -13.1522 -11.464 -21.2036
320 2 -14.0531 12.0245 -20.4149
281 2 14.4871 12.2503 -20.2744
282 2 14.2048 12.4759 -21.1796
80 1 14.3136 -12.5507 -18.7635
122 1 -14.2527 -11.5278 -18.3679
121 1 -13.8958 -11.5027 -19.3112
321 2 -14.2535 11.7202 -19.4754
322 2 -14.4126 11.8949 -18.4564
280 2 14.4797 11.9653 -19.2669
279 2 14.3195 11.9539 -18.1881
79 1 14.4805 -12.1527 -17.8247
78 1 14.5324 -11.949 -16.8133
123 1 -14.8919 -11.5995 -17.4964
323 2 -15.0404 11.9229 -17.6367
324 2 -14.9101 12.3216 -16.6751
278 2 14.556 12.067 -17.142
125 1 -14.4097 -11.8434 -15.5146
77 1 14.52 -11.8162 -15.8178
124 1 -14.5023 -11.5768 -16.5032
325 2 -14.7623 12.3791 -15.6497
277 2 14.5877 11.8853 -16.0804
276 2 14.4425 11.9485 -15.0003
127 1 -14.1719 -11.9556 -13.5612
76 1 14.7322 -12.1258 -14.816
75 1 14.2193 -12.1175 -13.9425
126 1 -14.2314 -11.5124 -14.5027
275 2 14.2908 11.4897 -14.0979
326 2 -14.3942 12.2554 -14.7268
327 2 -14.4507 12.1985 -13.7431
128 1 -13.8759 -11.9794 -12.5833
74 1 14.4576 -12.2649 -13.001
73 1 13.998 -12.7129 -12.1885
274 2 14.4206 11.6779 -13.093
273 2 14.1532 11.5639 -12.128
328 2 -14.1524 12.4221 -12.8486
329 2 -14.0835 12.5698 -11.83
129 1 -13.6567 -12.284 -11.6335
130 1 -13.2237 -12.0493 -10.7149
71 1 13.2511 -12.0373 -10.4796
72 1 13.7619 -12.053 -11.4035
272 2 13.5596 11.5748 -11.209
330 2 -13.9993 12.6932 -10.7777
131 1 -13.1603 -11.8118 -9.73381
132 1 -12.7964 -11.9914 -8.77797
70 1 12.9497 -11.9828 -9.49785
270 2 13.2921 11.7884 -9.16058
271 2 13.444 11.5297 -10.148
331 2 -13.4086 12.6703 -9.92023
332 2 -12.8625 12.4237 -9.05259
133 1 -12.2533 -11.8901 -7.87157
68 1 12.1512 -12.0725 -7.62572
69 1 12.5813 -11.9082 -8.51557
333 2 -12.4462 12.4866 -8.08466
334 2 -11.9013 12.5397 -7.17107
268 2 12.5904 12.0706 -7.28202
269 2 12.7912 12.0937 -8.27945
134 1 -11.907 -11.8934 -6.84295
135 1 -11.5618 -12.2025 -5.88554
66 1 11.0652 -12.4979 -5.92486
67 1 11.7972 -12.3626 -6.67015
335 2 -11.3751 12.4911 -6.25714
267 2 11.985 12.0537 -6.42415
136 1 -10.9216 -12.2514 -5.08719
137 1 -10.2958 -12.5154 -4.27642
64 1 10.0465 -12.3435 -4.1323
65 1 10.5676 -12.4089 -5.0245
336 2 -10.8101 12.8126 -5.42415
337 2 -10.1528 12.9207 -4.62931
266 2 11.4714 11.9073 -5.4734
265 2 10.8933 11.8431 -4.64214
138 1 -9.61898 -12.2924 -3.55243
139 1 -9.00305 -12.1569 -2.75935
63 1 9.57081 -12.1275 -3.26954
264 2 10.1907 11.7408 -3.86885
263 2 9.64409 11.7464 -3.0219
338 2 -9.83025 12.7167 -3.6635
339 2 -9.29003 12.6145 -2.72992
140 1 -8.76103 -12.2181 -1.73058
141 1 -8.15415 -12.1973 -0.822822
61 1 8.72634 -12.3925 -1.43674
62 1 9.20298 -12.4032 -2.35999
261 2 8.66229 11.7056 -1.12392
262 2 9.17857 11.6826 -2.04165
340 2 -8.62149 12.5619 -1.94158
341 2 -8.12959 12.7684 -1.03996
142 1 -7.57286 -12.4378 0.00225284
143 1 -6.86063 -12.3993 0.785227
59 1 7.54422 -12.2033 0.292297
60 1 8.0385 -12.4188 -0.628508
342 2 -7.48165 12.8493 -0.200872
343 2 -6.86811 12.7483 0.685501
260 2 7.96911 11.9514 -0.419412
259 2 7.25551 12.163 0.357915
144 1 -6.28628 -12.1786 1.7132
57 1 6.21049 -12.1444 1.84902
58 1 6.84656 -12.1643 1.03073
344 2 -6.19822 12.9273 1.50629
345 2 -5.57895 12.8703 2.35157
257 2 5.74895 11.934 1.85487
258 2 6.55767 11.9283 1.12928
145 1 -5.83164 -12.3446 2.66184
146 1 -5.03455 -12.0909 3.29565
55 1 4.85594 -12.4324 3.40377
56 1 5.5457 -12.359 2.66778
346 2 -5.01894 12.8955 3.3145
255 2 4.42789 11.9723 3.47371
256 2 5.19812 11.8533 2.72123
147 1 -4.43792 -12.1211 4.19655
148 1 -3.69873 -12.344 4.84561
149 1 -2.83804 -12.3024 5.41397
53 1 3.5794 -11.9426 5.01275
54 1 4.22605 -12.252 4.24587
347 2 -4.2871 12.7267 4.01578
348 2 -3.64904 12.7286 4.81427
253 2 2.92093 12.0956 4.92456
254 2 3.5825 12.1937 4.06479
150 1 -2.25712 -12.0372 6.23096
51 1 2.11501 -11.9481 6.43918
52 1 2.85712 -12.1505 5.72507
349 2 -2.99853 12.6248 5.59169
350 2 -2.3122 12.6243 6.3729
251 2 1.8998 12.0622 6.68803
252 2 2.31055 11.9523 5.74871
154 1 -4.51515 -12.0694 8.29609
155 1 -5.50327 -12.2554 8.57515
153 1 -3.50147 -11.9368 7.95222
152 1 -2.63373 -12.1656 7.49964
151 1 -1.68384 -12.0286 7.12932
199 1 -1.01312 -12.0949 8.43652
200 1 -0.646965 -12.035 7.51608
1 1 0.467901 -12.1169 7.69921
50 1 1.39443 -11.9561 7.23868
2 1 1.1725 -12.1868 8.46749
49 1 2.27265 -11.7089 7.8315
48 1 3.23549 -11.7748 8.23865
355 2 -5.68115 12.35 8.65463
354 2 -4.66115 12.4131 8.28686
353 2 -3.70267 12.2853 7.9262
352 2 -2.67288 12.3644 7.83283
351 2 -1.82717 12.4508 7.25498
399 2 -1.72572 12.4477 8.45682
400 2 -0.974485 12.2067 7.83845
201 2 0.115931 12.1793 7.86563
250 2 1.14972 12.1503 7.51857
249 2 1.93104 12.156 8.25052
202 2 0.898296 11.9462 8.54235
248 2 2.94283 12.1647 8.6456
158 1 -8.25553 -12.0894 9.9649
157 1 -7.23336 -12.2284 9.68942
156 1 -6.33415 -12.4415 9.22262
197 1 -2.54675 -12.55 9.70845
198 1 -1.76178 -12.3522 9.10615
3 1 1.94467 -12.1275 9.16129
4 1 2.51875 -12.4456 9.96834
47 1 4.10604 -11.5612 8.80844
46 1 4.94491 -11.5738 9.42325
45 1 6.01084 -11.4944 9.59673
44 1 6.97818 -11.3497 9.97743
203 2 1.53783 11.5051 9.2059
204 2 2.32014 11.5606 9.87872
357 2 -7.34367 12.3885 9.82932
356 2 -6.43909 12.3543 9.36297
398 2 -2.45845 12.693 9.16858
397 2 -2.99354 12.835 10.068
247 2 3.9295 12.1146 9.06728
246 2 4.83057 12.4731 9.56899
245 2 5.73838 12.5318 10.139
162 1 -11.9241 -11.9126 11.5795
161 1 -10.9443 -12.1092 11.1065
159 1 -9.22372 -11.8295 10.2624
160 1 -9.98245 -12.2255 10.7227
195 1 -4.27319 -12.4761 10.9625
194 1 -5.13116 -12.6807 11.5239
196 1 -3.44834 -12.3644 10.3016
5 1 3.3596 -12.2136 10.4156
6 1 4.00368 -12.2041 11.2247
43 1 7.95595 -11.395 10.4528
42 1 8.88449 -11.3257 10.8348
41 1 9.86611 -11.4905 11.2456
40 1 10.7281 -11.433 11.7829
205 2 2.95723 11.4122 10.6862
206 2 3.55639 11.3946 11.5152
362 2 -12.1844 12.3836 11.5969
363 2 -13.178 12.5552 11.7608
361 2 -11.2317 12.584 11.2342
360 2 -10.2339 12.6834 10.9656
359 2 -9.32253 12.6375 10.5176
358 2 -8.31575 12.3975 10.3254
396 2 -3.49693 12.6574 10.9776
244 2 6.78406 12.4733 10.2809
243 2 7.79123 12.8168 10.3711
242 2 8.72329 12.8928 10.9012
241 2 9.62762 13.1159 11.393
163 1 -12.6642 -12.0361 12.316
164 1 -13.3024 -12.1255 13.0556
191 1 -7.6645 -12.695 13.2833
193 1 -5.96392 -12.8461 12.1225
192 1 -6.65215 -12.7713 12.9392
7 1 4.77314 -12.3126 11.8793
8 1 5.28879 -12.0562 12.7352
39 1 11.3772 -11.3192 12.5271
38 1 12.094 -11.3548 13.3029
208 2 5.03968 11.4434 12.8918
207 2 4.2254 11.4041 12.3252
365 2 -14.8429 12.8469 12.7862
364 2 -13.9345 12.9443 12.4072
393 2 -5.53306 12.8274 13.0402
394 2 -4.67493 12.4662 12.543
395 2 -3.87601 12.7962 11.9338
240 2 10.5366 13.3035 11.8982
239 2 11.3917 12.8632 12.2904
238 2 12.2509 13.042 12.7358
237 2 13.082 12.7797 13.3084
166 1 -15.2022 -11.9652 13.717
167 1 -16.1572 -11.8465 14.1044
165 1 -14.2365 -12.1972 13.5105
189 1 -9.43208 -12.7574 14.3516
190 1 -8.56913 -12.7187 13.7818
9 1 6.01975 -11.9326 13.3965
10 1 6.7576 -12.0451 14.0965
11 1 7.47558 -12.1433 14.8326
37 1 12.9369 -11.9413 13.7059
35 1 14.79 -11.9262 14.561
36 1 13.8484 -12.106 14.1493
168 1 -17.1233 -11.5973 14.4234
209 2 5.98513 11.528 13.4918
210 2 6.84418 11.6328 14.0296
368 2 -17.008 12.8005 14.8743
367 2 -16.1893 12.939 14.2444
366 2 -15.6414 13.1913 13.3861
391 2 -7.22472 12.762 14.0751
390 2 -7.99193 12.5962 14.7533
392 2 -6.49722 12.6973 13.4591
211 2 7.7021 11.9372 14.507
236 2 13.9855 12.7495 13.7878
235 2 14.9399 12.4301 14.1648
234 2 15.6729 12.3337 14.8433
186 1 -11.5942 -12.4705 16.2771
187 1 -10.7556 -12.524 15.6576
188 1 -9.85927 -12.2689 15.1875
12 1 8.35126 -12.5574 15.3228
13 1 9.27023 -12.5274 15.799
33 1 16.2528 -12.5561 15.7614
34 1 15.3058 -12.4321 15.3382
32 1 17.165 -12.5437 16.054
171 1 -19.1138 -11.5251 16.0116
170 1 -18.7675 -11.0009 15.2107
169 1 -17.7747 -11.2372 15.0904
371 2 -18.6732 11.6368 16.4481
213 2 9.39663 11.789 15.6693
232 2 16.8907 11.7533 16.3359
370 2 -17.7483 11.9259 16.279
369 2 -17.2405 12.7082 15.837
387 2 -10.3098 12.5803 16.4777
388 2 -9.55007 12.6194 15.7844
389 2 -8.91679 12.8473 15.0285
212 2 8.57885 12.0213 15.0206
214 2 10.3937 12.0951 15.7395
215 2 11.2599 12.1839 16.2042
233 2 16.4376 12.2321 15.5742
185 1 -12.1847 -12.541 17.0975
184 1 -12.7862 -12.7754 17.9063
14 1 9.81883 -12.8501 16.5998
15 1 10.3648 -13.1357 17.395
31 1 17.6127 -12.6199 16.9748
30 1 18.5613 -12.9413 17.3164
29 1 19.427 -13.1061 17.6969
173 1 -20.0181 -11.5626 17.8149
172 1 -19.5448 -11.4901 16.9203
372 2 -18.8636 11.7302 17.4805
231 2 17.5877 11.6192 17.0656
230 2 18.0311 11.673 17.9895
373 2 -19.5186 12.2004 18.0986
385 2 -11.9774 13.0358 17.396
384 2 -12.874 12.7877 17.7932
386 2 -11.0861 12.684 17.1005
216 2 11.9424 12.4952 16.899
217 2 12.3924 12.4612 17.8083
174 1 -20.5123 -11.86 18.6709
181 1 -15.4584 -12.2214 19.2382
183 1 -13.6144 -12.399 18.4162
182 1 -14.5034 -12.1217 18.7951
16 1 11.0428 -12.887 18.1274
17 1 11.9967 -12.6142 18.3346
18 1 12.8418 -12.4926 18.8443
19 1 13.827 -12.4757 18.7761
20 1 14.5455 -12.761 19.4713
21 1 15.4945 -13.1594 19.2692
28 1 19.9201 -12.5166 18.4256
27 1 19.8749 -12.823 19.3863
175 1 -20.0409 -11.1781 19.2776
180 1 -16.2074 -11.7045 19.6668
229 2 18.8277 11.8004 18.632
228 2 19.4447 11.3554 19.2959
374 2 -20.3232 12.0478 18.7001
378 2 -18.5646 12.3239 19.597
379 2 -17.5655 12.429 19.3793
380 2 -16.6181 12.694 19.1296
381 2 -15.6694 12.3516 19.1703
383 2 -13.7678 12.4489 18.2948
382 2 -14.7169 12.4863 18.7843
218 2 13.2247 12.3075 18.3728
219 2 13.9012 12.0803 19.0383
220 2 14.8171 12.0254 19.4945
22 1 16.3028 -13.4168 19.7567
176 1 -19.7607 -11.8301 19.9481
179 1 -17.1106 -12.1445 19.8806
23 1 17.1918 -12.9041 19.9027
24 1 17.7978 -13.1507 20.6348
25 1 18.5404 -12.3972 20.6629
26 1 19.3814 -12.8437 20.3199
177 1 -18.9357 -11.503 20.4272
178 1 -18.006 -11.7134 20.1141
222 2 16.3924 11.6357 20.6505
223 2 17.2801 11.4542 21.1263
225 2 18.8461 11.3317 20.5056
227 2 20.0171 10.7014 19.8061
226 2 19.8316 11.4602 20.4537
375 2 -20.1265 11.9971 19.7665
376 2 -19.693 12.201 20.6973
377 2 -18.7091 12.3498 20.5874
221 2 15.6022 11.9156 20.0988
224 2 18.2252 11.5212 21.3048
ITEM: TIMESTEP
8000
ITEM: NUMBER OF ATOMS
400
ITEM: BOX BOUNDS ff ff ff
-3.7000000000000000e+01 3.7000000000000000e+01
-3.7000000000000000e+01 3.7000000000000000e+01
-3.7000000000000000e+01 3.7000000000000000e+01
ITEM: ATOMS id type x y z
102 1 -0.426667 -12.8778 -29.4159
101 1 0.566315 -13.0823 -29.482
100 1 1.6169 -13.102 -29.651
99 1 2.25902 -12.7227 -30.333
98 1 3.10711 -13.0612 -29.8558
97 1 3.85734 -13.2169 -29.2232
96 1 4.75763 -12.7371 -29.1956
304 2 -2.99802 11.554 -29.2557
302 2 -1.24904 10.6119 -29.5308
303 2 -2.12184 11.1253 -29.5427
301 2 -0.25594 10.7461 -29.6499
300 2 0.700132 10.6091 -29.4911
299 2 1.67335 10.6754 -29.191
306 2 -4.80862 12.4678 -29.2841
305 2 -3.82532 12.1052 -29.3021
108 1 -5.50909 -11.9152 -27.8298
105 1 -2.74857 -12.0872 -28.1266
106 1 -3.66843 -11.8326 -28.3863
104 1 -1.75388 -12.2253 -28.4305
103 1 -0.857062 -12.6961 -28.5215
95 1 5.7176 -13.1248 -28.7967
94 1 6.67415 -12.8562 -28.5143
93 1 7.56677 -13.0461 -28.1449
107 1 -4.61138 -11.7688 -28.1599
298 2 2.60369 10.9918 -28.9254
297 2 3.46354 10.8364 -28.4424
296 2 4.40329 10.9401 -28.6968
295 2 5.43162 10.7416 -28.5465
294 2 6.23204 11.1303 -28.0641
293 2 7.23769 11.2242 -27.8898
310 2 -8.53803 12.8277 -27.7923
309 2 -7.65059 12.4303 -28.222
307 2 -5.72088 12.3421 -28.854
308 2 -6.61388 12.4602 -28.3516
111 1 -8.22066 -11.8517 -26.7686
109 1 -6.48243 -12.0105 -27.5517
92 1 8.3637 -12.8619 -27.4859
91 1 9.17446 -12.2903 -27.0418
90 1 9.95265 -12.3343 -26.3966
112 1 -9.04617 -11.7931 -26.131
110 1 -7.26133 -11.5281 -27.1344
292 2 8.09439 11.3625 -27.331
291 2 8.9643 11.3344 -26.8211
290 2 9.92032 11.6376 -26.8978
289 2 10.7333 11.428 -26.3732
312 2 -10.488 12.7481 -27.0395
313 2 -11.1903 12.822 -26.3311
311 2 -9.52845 12.8328 -27.4372
89 1 10.6794 -12.4943 -25.6613
88 1 11.6731 -12.6323 -25.5858
87 1 12.0402 -12.9904 -24.68
114 1 -10.2829 -11.7451 -24.8212
113 1 -10.0112 -11.6448 -25.8373
288 2 11.3908 11.3244 -25.5897
287 2 12.0324 11.7651 -25.0164
315 2 -12.2509 12.4931 -24.7302
314 2 -11.8732 12.7291 -25.6656
286 2 12.8779 11.8817 -24.4072
86 1 12.8386 -12.6895 -24.1003
85 1 13.2246 -12.0848 -23.3414
84 1 13.7476 -12.8144 -22.8886
116 1 -11.8676 -11.5451 -23.5497
115 1 -11.1044 -11.7618 -24.2104
316 2 -12.9479 12.609 -23.9982
317 2 -12.5099 12.6352 -23.0661
285 2 12.8479 12.1726 -23.4362
83 1 13.3776 -12.5632 -21.9871
117 1 -11.9537 -11.4651 -22.5445
118 1 -12.4961 -11.3521 -21.6986
318 2 -12.9813 12.5325 -22.1668
284 2 13.0535 11.9141 -22.4704
283 2 13.1261 11.929 -21.4295
82 1 13.596 -12.8254 -21.0059
81 1 13.7438 -12.5259 -20.0386
120 1 -13.3474 -11.1152 -19.986
119 1 -12.6333 -11.1761 -20.7261
320 2 -13.4684 12.0158 -20.3938
319 2 -13.0459 12.5465 -21.12
282 2 13.1891 12.102 -20.4106
80 1 13.8495 -12.5008 -18.9695
122 1 -14.1367 -11.6129 -18.1958
121 1 -13.6733 -11.4245 -19.1088
281 2 13.1934 11.7982 -19.4126
321 2 -13.9346 12.1542 -19.4944
322 2 -14.2446 12.1807 -18.5053
280 2 13.2443 11.8389 -18.3959
79 1 14.2197 -12.4762 -17.992
78 1 14.0615 -12.3675 -16.965
123 1 -14.1004 -11.6316 -17.2063
279 2 13.6808 11.8059 -17.4317
323 2 -14.6305 12.4194 -17.5714
324 2 -14.5466 12.2905 -16.5661
278 2 14.1396 12.1008 -16.5957
77 1 14.051 -12.1597 -15.9463
76 1 13.9273 -12.4235 -15.0091
125 1 -13.9155 -11.2988 -15.3111
124 1 -14.3136 -11.7905 -16.2233
277 2 14.274 11.5854 -15.7536
325 2 -14.8083 11.852 -15.6632
75 1 13.9072 -12.5115 -14.0329
126 1 -13.8112 -11.4363 -14.2692
276 2 14.3009 11.3692 -14.7677
275 2 14.214 11.5276 -13.7799
326 2 -14.6348 11.9334 -14.678
327 2 -14.5424 12.1438 -13.7144
74 1 13.6848 -12.2868 -13.0105
73 1 13.644 -12.2644 -11.9552
127 1 -13.5763 -11.6314 -13.2716
128 1 -13.5935 -11.4666 -12.2504
274 2 13.8049 11.4643 -12.8464
273 2 13.7876 11.6646 -11.8751
328 2 -14.3554 12.1584 -12.6819
329 2 -13.7989 12.2352 -11.8252
130 1 -13.5102 -12.0513 -10.3002
71 1 13.0042 -12.954 -10.2831
72 1 13.4476 -12.8931 -11.1577
129 1 -13.5293 -11.6242 -11.2552
272 2 13.7887 11.7094 -10.8742
330 2 -13.5097 12.5034 -10.8198
131 1 -13.3236 -12.0841 -9.30031
70 1 12.9523 -12.7618 -9.32939
270 2 13.0236 11.3629 -9.04423
271 2 13.4244 11.637 -9.90047
331 2 -13.2089 12.3185 -9.85378
332 2 -12.7079 12.1921 -8.8951
132 1 -12.7525 -11.8746 -8.4908
133 1 -12.2005 -12.1375 -7.64482
68 1 12.1772 -12.6748 -7.46539
69 1 12.6144 -12.8086 -8.3585
268 2 12.0916 11.4478 -7.28001
269 2 12.5461 11.6057 -8.14733
333 2 -12.2324 12.2915 -7.9543
134 1 -11.71 -12.5014 -6.79773
135 1 -11.2001 -12.5717 -5.91039
66 1 11.3106 -12.4822 -5.56207
67 1 11.8519 -12.5408 -6.48623
267 2 11.5266 11.24 -6.45992
266 2 11.1363 11.4027 -5.5361
334 2 -11.698 12.2823 -7.07305
335 2 -11.4837 12.1337 -6.06518
136 1 -10.6578 -12.5773 -5.00172
137 1 -9.83975 -12.7643 -4.44026
64 1 9.81939 -12.3711 -4.17027
65 1 10.5023 -12.3819 -4.97066
265 2 10.6643 11.5296 -4.61805
336 2 -10.97 12.5184 -5.21079
337 2 -10.2564 12.4333 -4.50134
138 1 -9.37713 -12.585 -3.55359
139 1 -8.60442 -12.4789 -2.8369
63 1 9.48496 -12.4752 -3.19119
263 2 9.70349 11.6819 -2.86739
264 2 10.347 11.6517 -3.66442
338 2 -9.77349 12.3753 -3.56564
339 2 -9.34414 12.5591 -2.63371
140 1 -8.02382 -12.6877 -2.003
141 1 -7.53464 -12.7862 -1.11022
61 1 8.34453 -12.4796 -1.41115
62 1 8.94858 -12.541 -2.3016
261 2 8.43163 11.3158 -1.28797
262 2 9.18358 11.203 -2.08059
340 2 -9.04212 12.6945 -1.64384
341 2 -8.19971 12.8731 -1.00113
142 1 -7.26628 -12.4846 -0.110325
143 1 -6.4827 -12.3269 0.572212
59 1 6.97451 -12.2191 0.0769137
60 1 7.60674 -12.3306 -0.729213
260 2 7.73575 11.4818 -0.582297
259 2 7.17267 11.6537 0.312626
342 2 -7.38497 12.9252 -0.34221
343 2 -6.78684 13.0857 0.529097
144 1 -5.79792 -12.6048 1.31955
145 1 -5.18049 -12.559 2.11775
57 1 5.75608 -12.0503 1.55734
58 1 6.64706 -12.2233 0.996775
56 1 5.1385 -11.6356 2.29297
257 2 5.87009 11.737 1.94886
258 2 6.53241 11.7418 1.13204
344 2 -6.11879 12.9202 1.33563
345 2 -5.57377 12.9352 2.23741
146 1 -4.44174 -12.6225 2.94298
147 1 -3.71174 -12.5422 3.68566
55 1 4.84157 -11.6489 3.37759
346 2 -4.84538 12.7652 3.00519
255 2 4.66736 12.1913 3.60313
256 2 5.40339 12.039 2.80614
148 1 -3.15087 -12.6311 4.56712
149 1 -2.7119 -12.3085 5.49462
53 1 3.27985 -11.8707 4.82533
52 1 2.37435 -11.8339 5.24138
54 1 4.0064 -11.8495 4.09213
347 2 -4.38366 12.6416 3.93912
348 2 -3.51728 12.6272 4.59709
349 2 -2.91811 12.7751 5.39495
253 2 3.33131 12.1681 5.19577
254 2 3.97509 12.1618 4.41128
150 1 -1.99053 -12.3444 6.21607
151 1 -1.42026 -12.0177 7.08474
51 1 1.81721 -12.1468 6.07004
50 1 1.46853 -11.9367 7.00334
350 2 -2.29544 12.5006 6.17501
351 2 -1.55147 12.4681 6.97753
251 2 2.00616 12.3164 6.67549
252 2 2.68814 12.0446 5.9507
154 1 -4.15433 -11.9817 8.39609
153 1 -3.28085 -11.8122 7.87368
199 1 -1.23081 -11.9332 8.46112
200 1 -0.523835 -11.9885 7.70368
1 1 0.537172 -12.0862 7.48626
2 1 1.18108 -12.2075 8.31349
49 1 2.32901 -11.9696 7.57868
152 1 -2.4373 -11.7817 7.21061
48 1 3.08715 -11.6446 8.1575
355 2 -5.52021 12.3029 8.23977
356 2 -6.51113 12.1287 8.64734
354 2 -4.53913 12.3468 7.91393
353 2 -3.57225 12.3465 7.56588
352 2 -2.50444 12.4405 7.43769
399 2 -1.3176 12.647 8.43546
400 2 -0.745666 12.5737 7.62091
201 2 0.290268 12.2657 7.70302
250 2 1.26519 12.298 7.40127
249 2 2.11174 12.2372 7.92134
202 2 1.01677 12.0125 8.48772
248 2 3.02105 12.3387 8.33544
247 2 4.07773 12.3892 8.55163
158 1 -7.76757 -11.8758 9.93083
155 1 -5.10944 -11.8159 8.84236
197 1 -2.78968 -12.1125 9.75064
198 1 -2.13852 -11.8631 8.96786
3 1 1.83727 -12.5889 9.00927
4 1 2.26811 -12.7919 9.93923
46 1 4.95127 -11.8399 9.07861
157 1 -6.83797 -11.5686 9.76528
156 1 -5.88858 -11.6727 9.48037
47 1 3.99156 -11.6699 8.71262
45 1 5.83514 -11.7514 9.61515
44 1 6.79797 -11.4981 9.96571
357 2 -7.38509 12.3931 9.18481
358 2 -8.27384 12.3799 9.76645
397 2 -2.74263 12.8092 9.84287
398 2 -1.91032 12.7108 9.27655
203 2 1.68082 12.0555 9.27156
204 2 2.28651 11.9214 10.0793
246 2 4.91915 12.6614 9.12919
245 2 5.81067 12.4012 9.62654
244 2 6.69718 12.4348 10.1841
163 1 -12.5642 -12.0193 11.5416
162 1 -11.5214 -11.9782 11.3427
161 1 -10.5881 -12.4324 11.011
160 1 -9.57752 -12.334 10.8677
159 1 -8.6431 -12.1543 10.4284
195 1 -4.30434 -12.6235 11.0969
194 1 -5.05747 -12.6001 11.7534
196 1 -3.48062 -12.475 10.3697
5 1 3.2144 -12.5906 10.3215
6 1 3.88037 -12.4098 11.0535
43 1 7.47125 -11.5953 10.6817
42 1 8.32254 -11.6656 11.2771
206 2 3.88576 11.7319 11.4109
361 2 -10.8125 12.6992 11.4246
360 2 -9.9317 12.5882 10.9411
359 2 -9.03042 12.6521 10.4121
394 2 -5.00626 12.6871 11.7462
395 2 -4.40621 12.9314 10.9724
396 2 -3.54185 12.7729 10.3681
205 2 3.08286 11.9029 10.758
243 2 7.55194 12.5179 10.6712
242 2 8.51048 12.6329 11.0107
241 2 9.44459 12.6386 11.4868
164 1 -13.3928 -12.169 12.1392
165 1 -14.0978 -11.9195 12.9013
191 1 -7.6989 -13.0026 13.2497
193 1 -6.04754 -12.5906 12.0699
192 1 -6.86927 -12.896 12.6531
7 1 4.38858 -12.4345 11.9292
8 1 5.13526 -12.5183 12.626
9 1 5.83539 -12.5745 13.3761
166 1 -15.0137 -11.7448 13.3011
41 1 8.99513 -11.2594 11.9557
40 1 9.92066 -11.0723 12.392
39 1 10.7808 -11.1593 12.9744
208 2 5.4838 11.1859 12.4797
207 2 4.73459 11.6268 11.9728
209 2 6.15502 10.7041 13.0837
364 2 -13.4218 12.7045 12.7512
363 2 -12.4456 12.6173 12.4727
362 2 -11.5586 12.3813 11.9722
393 2 -5.82102 12.9494 12.3254
392 2 -6.52992 13.0695 13.0568
240 2 10.4048 12.6623 11.9516
239 2 11.322 12.6003 12.4056
238 2 12.0824 12.5527 13.1373
167 1 -15.6339 -12.0255 14.0781
189 1 -9.19879 -12.8929 14.6311
190 1 -8.58891 -13.1209 13.8514
10 1 6.55126 -12.3665 14.0494
11 1 7.315 -12.4587 14.727
35 1 14.3358 -11.9268 14.5384
169 1 -17.205 -11.0062 14.8989
168 1 -16.4909 -11.5194 14.4339
38 1 11.5673 -11.3465 13.6357
37 1 12.5206 -11.6406 13.8947
36 1 13.3101 -11.6812 14.4907
210 2 6.87016 11.1336 13.649
211 2 7.43085 11.24 14.5175
367 2 -15.7416 12.7797 14.6217
365 2 -14.1957 12.525 13.4695
366 2 -14.8334 12.7054 14.2395
390 2 -7.99641 12.5224 14.3305
391 2 -7.07157 12.6942 13.8709
237 2 12.9386 12.7834 13.6796
236 2 13.7297 12.4096 14.117
235 2 14.6585 12.6605 14.5143
234 2 15.4673 12.2197 14.8858
186 1 -11.6436 -12.8025 16.5184
187 1 -10.7298 -12.8222 16.017
188 1 -9.8697 -12.8042 15.4383
12 1 8.11925 -12.74 15.3624
13 1 8.9208 -13.1556 15.8218
34 1 15.217 -12.114 15.0746
32 1 16.4847 -12.2847 16.2924
171 1 -18.8616 -11.1391 15.8164
170 1 -18.1875 -11.2372 15.0071
33 1 15.898 -11.6718 15.7121
212 2 8.3333 11.2673 15.0413
213 2 9.20695 11.3835 15.6409
214 2 10.1291 11.2465 16.1237
370 2 -18.3048 12.9072 16.1347
368 2 -16.6326 12.953 15.0413
369 2 -17.3467 13.0514 15.7713
387 2 -10.2209 12.6143 16.1542
388 2 -9.50808 12.7655 15.4638
389 2 -8.59684 12.5221 15.1404
233 2 16.1422 11.9824 15.6628
232 2 17.1509 11.923 15.9846
17 1 12.0324 -13.4454 18.0912
185 1 -12.4777 -12.5866 17.0566
184 1 -13.2489 -12.6967 17.7429
14 1 9.47499 -13.0496 16.6345
15 1 10.3989 -12.9666 16.9489
16 1 11.1347 -13.3158 17.5909
31 1 17.5046 -12.2789 16.5324
30 1 18.4984 -12.2144 16.649
29 1 18.8565 -12.6564 17.5058
173 1 -19.6116 -11.7789 17.5379
172 1 -19.3365 -11.4564 16.6118
373 2 -19.9246 11.437 18.1018
215 2 10.8983 11.5271 16.8179
218 2 13.446 11.6557 17.8393
231 2 17.9143 11.7348 16.6001
230 2 18.7458 11.7744 17.1634
371 2 -18.9475 12.3261 16.6734
372 2 -19.6288 11.975 17.2674
383 2 -13.8931 12.0119 17.4932
385 2 -12.1759 12.5863 16.9959
384 2 -12.8698 12.0724 17.4602
386 2 -11.1582 12.4757 16.6849
216 2 11.7334 11.9881 17.2295
217 2 12.7584 12.0291 17.189
229 2 19.4715 11.9795 17.8111
175 1 -19.4706 -11.962 19.1698
181 1 -15.8647 -12.549 19.2014
182 1 -14.9757 -12.8794 18.8312
183 1 -14.09 -12.7284 18.3334
18 1 12.9955 -13.3822 18.3298
19 1 13.7324 -12.7306 18.6518
20 1 14.6532 -12.6427 19.2025
21 1 15.6349 -12.8029 19.3251
22 1 16.6038 -13.0148 19.3853
28 1 19.2549 -12.4456 18.4266
27 1 19.4446 -13.21 19.084
174 1 -20.1188 -11.7286 18.3813
374 2 -18.9299 11.5957 18.3576
220 2 15.009 11.6445 18.9887
221 2 15.9492 11.2747 19.0027
228 2 19.355 11.4769 18.6984
227 2 19.7664 11.6949 19.5832
375 2 -19.3343 12.0656 19.2775
379 2 -17.1894 12.7697 19.3311
380 2 -16.2933 12.4021 19.1968
381 2 -15.5021 12.0401 18.6926
382 2 -14.6178 12.0349 18.2157
219 2 14.1785 11.955 18.5187
180 1 -15.9528 -11.8123 19.9726
23 1 17.4961 -13.3175 19.7785
24 1 18.1953 -12.7836 20.3115
25 1 18.9854 -12.2309 20.7424
26 1 19.3689 -12.9113 20.0826
176 1 -19.7304 -11.7269 20.1378
177 1 -18.8322 -11.3074 20.0078
179 1 -16.9097 -11.4877 19.8115
178 1 -17.8444 -11.0657 19.9937
376 2 -19.1327 11.6852 20.1774
222 2 16.5611 11.6013 19.7642
223 2 16.954 10.979 20.4398
224 2 17.6622 11.1622 21.1431
225 2 18.5804 10.9776 20.7032
226 2 18.941 11.1979 19.8136
377 2 -18.9864 12.6828 20.1629
378 2 -18.0511 12.4676 19.7833
ITEM: TIMESTEP
9000
ITEM: NUMBER OF ATOMS
400
ITEM: BOX BOUNDS ff ff ff
-3.7000000000000000e+01 3.7000000000000000e+01
-3.7000000000000000e+01 3.7000000000000000e+01
-3.7000000000000000e+01 3.7000000000000000e+01
ITEM: ATOMS id type x y z
104 1 -2.36053 -12.2015 -29.6517
103 1 -1.57013 -12.4335 -29.204
101 1 0.254376 -13.234 -29.1553
100 1 1.08727 -13.2772 -29.6455
99 1 2.0247 -12.9443 -29.9149
98 1 3.02729 -12.8922 -29.8654
97 1 4.04782 -12.8014 -29.8888
96 1 4.99771 -12.9951 -29.5603
302 2 -1.44805 11.0792 -29.2624
301 2 -0.485992 11.0672 -29.7163
300 2 0.548504 11.0008 -29.6891
299 2 1.47495 10.6118 -29.4049
305 2 -4.01479 12.1676 -29.2616
303 2 -2.11602 11.8165 -29.3746
105 1 -3.21614 -12.3458 -29.0968
102 1 -0.644585 -12.8377 -28.9416
95 1 5.66361 -12.8863 -28.8364
94 1 6.67161 -12.8776 -28.6143
93 1 7.66178 -12.8141 -28.4945
92 1 8.37697 -12.9728 -27.7944
108 1 -5.60997 -11.7227 -27.7932
106 1 -4.03224 -11.6839 -29.0006
107 1 -4.76821 -11.5362 -28.43
298 2 2.24137 10.9283 -28.824
297 2 3.1785 10.6459 -28.4279
296 2 4.1864 10.6498 -28.2953
295 2 5.04118 10.6298 -27.7273
310 2 -8.87764 12.2126 -28.0789
309 2 -7.92802 12.268 -28.3326
307 2 -6.01075 12.3164 -29.0436
308 2 -6.95809 12.3514 -28.6655
306 2 -5.00894 12.1702 -29.0857
304 2 -3.10497 11.9645 -28.932
111 1 -7.8408 -11.8312 -26.0811
110 1 -7.27613 -11.8246 -26.9569
91 1 9.25027 -13.2905 -27.371
90 1 10.0859 -13.1462 -26.8036
109 1 -6.46708 -11.2415 -27.3929
294 2 5.97945 10.9163 -27.3982
293 2 6.91153 11.107 -27.0402
292 2 7.75112 11.1487 -26.3881
312 2 -9.61008 13.0128 -26.538
311 2 -9.16797 12.26 -27.1323
89 1 10.4004 -12.7394 -25.853
88 1 11.3567 -12.5649 -25.4564
87 1 11.9085 -12.8698 -24.6339
112 1 -8.76231 -11.543 -25.9017
113 1 -9.39803 -11.4578 -25.1157
291 2 8.51703 11.4701 -25.8198
290 2 9.32279 11.6197 -25.2581
289 2 10.3165 11.3587 -25.4916
288 2 11.1868 11.3726 -24.9733
315 2 -11.6841 12.4703 -24.7766
314 2 -10.9348 12.8759 -25.2831
313 2 -10.0503 12.6473 -25.7358
287 2 11.6528 12.2398 -24.7414
116 1 -11.2808 -11.8323 -23.1718
86 1 12.7736 -12.9245 -24.0854
85 1 13.0718 -12.2109 -23.346
115 1 -10.3495 -11.6323 -23.3702
114 1 -9.89806 -11.7306 -24.2646
316 2 -12.4134 12.5208 -24.0618
317 2 -12.4136 12.2778 -23.1051
286 2 11.8683 12.7277 -23.8887
285 2 12.5557 12.3046 -23.244
118 1 -12.6418 -12.0523 -21.7604
84 1 13.4483 -12.5195 -22.4038
83 1 14.1261 -12.191 -21.7699
117 1 -12.0093 -11.7017 -22.4782
318 2 -12.7963 12.1037 -22.1701
319 2 -12.6849 12.842 -21.4257
284 2 12.6852 12.0964 -22.2374
283 2 12.9611 11.9107 -21.2743
120 1 -13.5456 -12.0559 -19.9177
119 1 -13.0133 -11.9484 -20.7979
82 1 14.1369 -12.6159 -20.8579
81 1 13.9247 -12.5584 -19.8234
320 2 -12.9395 12.7053 -20.44
282 2 13.08 12.2645 -20.3454
80 1 13.7782 -12.3229 -18.8434
121 1 -13.5754 -11.5953 -18.9456
280 2 13.3083 11.7458 -18.4766
322 2 -13.5916 12.7228 -18.5073
321 2 -13.3406 12.6068 -19.5083
281 2 13.0096 11.9831 -19.3936
79 1 13.4596 -12.6913 -18.0097
78 1 13.5642 -12.5339 -16.9701
122 1 -13.5981 -11.6635 -17.8775
123 1 -13.577 -11.5642 -16.8079
323 2 -13.8728 12.3005 -17.5974
324 2 -14.3136 12.2947 -16.6436
279 2 13.2964 11.9043 -17.4774
77 1 13.5318 -12.7376 -15.9474
76 1 13.6017 -12.483 -14.9598
124 1 -13.9839 -11.4385 -15.8981
278 2 13.3295 11.4434 -16.5208
277 2 13.3043 11.2892 -15.4983
325 2 -14.0828 12.3957 -15.6378
126 1 -13.9814 -12.0815 -14.0138
75 1 13.3284 -12.0969 -14.0124
125 1 -14.2364 -11.7527 -14.9244
276 2 13.2239 11.7871 -14.5628
275 2 13.7378 11.4173 -13.7762
326 2 -13.8445 12.3133 -14.6616
327 2 -13.3669 12.7392 -13.8417
128 1 -13.2047 -11.9899 -12.3718
74 1 13.2276 -11.8533 -13.0703
73 1 13.2253 -12.046 -12.0518
127 1 -13.6353 -11.4935 -13.1866
274 2 13.3491 11.3901 -12.8676
273 2 13.1039 11.0358 -11.907
328 2 -13.2627 12.921 -12.8356
329 2 -13.0846 12.8524 -11.8529
130 1 -12.5898 -12.4876 -10.6363
129 1 -13.2466 -12.3912 -11.4338
72 1 12.9898 -11.9031 -11.029
272 2 13.3228 11.4623 -11.0183
330 2 -13.0223 12.7229 -10.8392
131 1 -12.2938 -12.5637 -9.65907
132 1 -12.0239 -12.4964 -8.6837
71 1 12.7256 -12.1328 -10.0178
70 1 12.6332 -11.9989 -8.99625
270 2 12.2405 11.4836 -9.28294
271 2 12.8064 11.6867 -10.1633
331 2 -12.7477 12.5895 -9.84555
332 2 -12.2929 12.2813 -8.92434
133 1 -11.6849 -12.5599 -7.69993
68 1 11.1761 -12.1856 -7.58719
69 1 11.9637 -11.9199 -8.24426
333 2 -11.7017 12.4101 -8.08056
334 2 -11.3567 12.2936 -7.10291
268 2 11.4612 12.0309 -7.61446
269 2 11.8471 12.0074 -8.57179
134 1 -11.0129 -12.535 -6.87808
135 1 -10.8368 -12.5429 -5.84115
66 1 10.4143 -12.8228 -5.84481
67 1 11.0052 -12.4398 -6.58011
335 2 -10.6751 12.3788 -6.28817
267 2 11.0053 11.8956 -6.66603
266 2 10.4367 11.8267 -5.83245
136 1 -10.2127 -12.7082 -5.02614
137 1 -9.65447 -12.4016 -4.17195
64 1 9.61923 -12.6509 -4.12143
65 1 9.65313 -12.7871 -5.1326
264 2 9.70519 11.7985 -4.02845
336 2 -10.3348 12.3778 -5.31709
337 2 -9.81309 12.3474 -4.44317
265 2 9.76236 12.1175 -5.05574
138 1 -9.07071 -12.5272 -3.36677
139 1 -8.5124 -12.9027 -2.59413
63 1 9.07224 -12.7592 -3.27476
62 1 8.75211 -12.4683 -2.36372
338 2 -9.23888 12.3192 -3.54266
339 2 -8.83484 12.4479 -2.54345
263 2 9.30826 12.0919 -3.11749
140 1 -7.81558 -12.7429 -1.8443
141 1 -7.17342 -12.9694 -1.08178
61 1 8.20564 -12.229 -1.4366
340 2 -8.3413 12.5566 -1.63633
341 2 -7.65212 12.4356 -0.872852
261 2 8.35268 11.909 -1.3303
262 2 8.91088 12.1396 -2.15804
142 1 -6.42538 -12.8425 -0.424455
143 1 -6.20044 -12.4363 0.493284
59 1 7.02603 -12.0434 0.158704
60 1 7.78723 -11.9215 -0.566976
260 2 7.65165 11.7349 -0.556172
259 2 7.11572 11.7674 0.320567
342 2 -7.20165 12.1972 0.0455074
144 1 -5.54836 -12.4503 1.31187
145 1 -4.7546 -12.4617 1.99598
57 1 5.88597 -11.9826 1.90742
58 1 6.39827 -11.9702 0.988923
257 2 5.83116 11.1885 1.8193
258 2 6.42149 11.6717 1.0813
343 2 -6.72364 12.2774 0.935632
344 2 -6.1617 12.1292 1.78086
146 1 -4.42796 -12.208 2.99102
147 1 -3.84917 -12.2762 3.87677
56 1 5.42428 -12.2249 2.79101
55 1 4.71443 -12.0639 3.54383
255 2 4.53726 11.5157 3.43667
256 2 5.07239 11.2681 2.5769
345 2 -5.5701 11.8475 2.5225
346 2 -5.1796 11.8646 3.47498
148 1 -3.22011 -12.2066 4.71533
149 1 -2.53159 -12.2956 5.48932
53 1 3.4301 -11.9762 5.0972
54 1 4.14036 -12.1257 4.36711
347 2 -4.32373 11.9242 4.06751
348 2 -3.6201 11.8578 4.93984
253 2 3.33316 12.1345 5.05953
254 2 3.97781 11.847 4.20222
150 1 -1.86978 -12.0821 6.19703
52 1 2.75018 -11.8921 5.97471
51 1 2.09701 -11.5497 6.76593
251 2 2.03635 11.762 6.62284
349 2 -2.95576 12.0633 5.66111
350 2 -2.15777 12.2973 6.26667
252 2 2.48006 11.9314 5.69227
154 1 -4.15243 -11.8456 8.4906
153 1 -3.37651 -12.2058 7.9561
152 1 -2.50355 -12.0283 7.40289
151 1 -1.52242 -12.0489 7.16356
199 1 -1.35877 -12.2955 8.2386
200 1 -0.606218 -11.9882 7.68125
1 1 0.473047 -12.0275 7.77116
2 1 1.00199 -12.3264 8.60383
48 1 3.11292 -11.9283 8.13819
50 1 1.42764 -11.7943 7.55414
49 1 2.30173 -11.3809 7.76818
354 2 -4.46448 12.3042 8.24481
353 2 -3.51802 12.4647 7.82546
352 2 -2.51529 12.2974 7.55538
351 2 -1.60398 12.4548 7.10483
399 2 -1.19223 12.3734 8.19371
400 2 -0.572658 12.3206 7.36762
201 2 0.394311 12.1257 7.67601
250 2 1.41829 12.0438 7.41651
249 2 2.12064 12.3173 8.09235
202 2 1.02508 11.973 8.41561
248 2 3.09145 12.4995 8.44879
155 1 -4.90714 -11.9431 9.17408
197 1 -2.55084 -12.8672 9.65843
198 1 -1.88153 -12.8869 8.8966
3 1 1.45764 -12.4885 9.50737
44 1 6.62168 -11.8269 9.95955
159 1 -8.70728 -11.6931 9.97263
158 1 -7.7016 -11.5862 10.0606
157 1 -6.66898 -11.6877 10.0651
156 1 -5.80784 -11.5598 9.57406
47 1 3.85532 -11.6356 8.81434
46 1 4.77473 -11.318 9.2017
45 1 5.64727 -11.614 9.66327
359 2 -9.14147 12.8225 10.0133
357 2 -7.18809 12.4994 9.56678
358 2 -8.18967 12.4527 9.75316
356 2 -6.16318 12.6244 9.35697
355 2 -5.40568 12.2132 8.7574
397 2 -2.60202 12.9182 9.58045
398 2 -1.95129 12.5233 8.94329
203 2 1.53744 11.962 9.26549
204 2 2.22261 12.089 10.0277
247 2 4.07587 12.6954 8.74152
246 2 4.94334 12.9088 9.25548
245 2 5.89432 12.6156 9.59085
7 1 4.71881 -13.4037 11.7134
162 1 -11.1696 -12.3909 11.7818
161 1 -10.3076 -12.2842 11.1983
160 1 -9.56324 -11.9391 10.6143
195 1 -4.2084 -12.6628 10.8048
194 1 -5.11559 -12.7161 11.3227
196 1 -3.26419 -12.4963 10.284
4 1 2.05021 -12.7106 10.3212
5 1 3.02485 -12.8854 10.6042
6 1 3.97788 -13.1573 11.1214
42 1 8.21301 -12.0876 11.1055
41 1 8.99164 -12.1469 11.7751
43 1 7.49929 -11.5933 10.4788
362 2 -11.908 12.3808 11.4022
361 2 -10.966 12.5084 10.9572
360 2 -9.98863 12.6136 10.6495
395 2 -3.84561 12.6055 11.0749
396 2 -3.16991 12.9419 10.4688
206 2 3.79056 12.0283 11.3496
205 2 2.93709 11.96 10.7553
244 2 6.5664 12.7912 10.334
243 2 7.55315 12.6013 10.6093
242 2 8.35283 12.3527 11.2144
241 2 9.37392 12.4165 11.2929
240 2 10.2751 12.6112 11.7382
163 1 -12.1063 -12.473 12.2721
164 1 -13.0711 -12.097 12.3837
193 1 -5.93729 -12.9188 11.8937
192 1 -6.66711 -12.971 12.5691
8 1 5.37881 -13.3517 12.4788
9 1 5.8442 -13.0163 13.3509
40 1 9.9166 -12.3794 12.1975
39 1 10.754 -12.3965 12.7955
38 1 11.7067 -12.7045 13.0183
165 1 -13.8917 -11.5975 12.7585
166 1 -14.7073 -11.7737 13.2993
365 2 -14.2537 11.7795 13.2372
208 2 5.35443 11.5384 12.5157
207 2 4.59729 11.7265 11.903
209 2 6.09956 11.0864 13.0971
364 2 -13.4019 12.2191 12.6432
363 2 -12.5166 12.4892 12.135
394 2 -4.40854 12.8616 11.9486
393 2 -5.07945 12.66 12.698
239 2 11.189 12.7548 12.3358
238 2 12.0038 13.0342 12.8857
11 1 7.06816 -13.5305 14.817
169 1 -17.2404 -12.0705 14.9301
189 1 -8.83615 -12.9115 14.3865
191 1 -7.32584 -12.931 13.4035
190 1 -8.09653 -12.4758 13.8304
10 1 6.67156 -13.3203 13.9125
37 1 12.6174 -12.6389 13.4599
36 1 13.3579 -12.9077 14.054
35 1 14.011 -12.6067 14.7171
168 1 -16.6263 -11.672 14.1476
167 1 -15.7431 -11.5942 13.5362
367 2 -15.6624 11.7083 14.6366
366 2 -14.8604 11.5509 13.9676
210 2 6.85921 10.9861 13.7219
211 2 7.37372 11.2869 14.5753
212 2 8.38637 11.4399 14.5974
390 2 -7.47393 12.3041 14.4233
389 2 -8.43085 12.098 14.8516
392 2 -5.7887 12.7281 13.4491
391 2 -6.75403 12.5541 13.7695
237 2 12.6719 13.511 13.5662
236 2 13.5262 13.5163 14.1221
235 2 14.3 13.4364 14.8757
12 1 7.74078 -13.4734 15.5849
186 1 -11.3351 -13.0793 16.2198
187 1 -10.4004 -13.0902 15.7322
188 1 -9.663 -12.9562 14.9575
13 1 8.32798 -13.3302 16.3478
34 1 14.8211 -12.6245 15.4735
33 1 15.7865 -12.3803 15.7655
32 1 16.6032 -12.8708 16.1867
171 1 -19.0819 -11.3856 15.4272
170 1 -18.1178 -11.6874 15.3466
172 1 -19.5125 -11.5293 16.3667
369 2 -17.0638 11.7371 15.9296
213 2 9.18155 11.7268 15.2008
214 2 10.12 11.6254 15.4582
215 2 11.006 11.635 15.8474
216 2 12.0124 11.5443 16.0919
217 2 12.7709 10.9402 16.4499
370 2 -17.3699 12.5123 16.4888
368 2 -16.4501 12.0558 15.1424
387 2 -9.80208 11.9789 16.2623
388 2 -9.03861 11.893 15.623
234 2 15.2133 13.1567 15.1757
233 2 15.8527 12.49 15.5652
232 2 16.5516 12.3461 16.2967
231 2 17.608 12.5905 16.3709
15 1 10.1236 -13.4822 17.4508
16 1 11.1097 -13.6735 17.7206
173 1 -19.2907 -11.9326 17.3062
183 1 -14.0568 -13.1038 17.6901
185 1 -12.2281 -12.9615 16.6478
184 1 -13.1438 -13.1424 17.0981
14 1 9.16627 -13.3103 16.9494
31 1 17.2045 -13.138 16.9344
30 1 18.0339 -12.5921 17.1281
29 1 19.0085 -12.557 17.4778
373 2 -19.3535 10.9255 17.5365
372 2 -18.629 11.4484 17.0127
218 2 13.395 11.5388 17.0859
219 2 14.0983 11.0104 17.6436
371 2 -18.3087 12.3507 16.6559
383 2 -13.0943 12.216 17.9486
384 2 -12.6803 12.4735 17.0375
385 2 -11.6528 12.3176 16.9277
386 2 -10.738 11.9104 16.7016
230 2 17.9633 12.9946 17.2366
229 2 18.8492 13.4083 17.6733
17 1 11.6689 -13.9971 18.4734
18 1 12.4374 -13.3888 18.1266
175 1 -19.6431 -12.4784 19.1721
174 1 -19.6217 -12.1336 18.2296
181 1 -15.1606 -12.2554 18.8185
182 1 -14.2474 -12.3138 18.3822
19 1 13.2954 -13.0343 18.6028
20 1 14.3033 -12.7863 18.8255
21 1 15.3096 -12.5395 18.89
22 1 16.3289 -12.5416 18.9363
28 1 18.5973 -12.8464 18.3237
27 1 18.9545 -12.5134 19.2142
176 1 -19.3454 -11.5563 19.5108
179 1 -16.6758 -11.6767 19.4401
180 1 -15.6712 -11.5006 19.3358
374 2 -19.3346 11.4979 18.3413
375 2 -18.9684 11.5394 19.2955
220 2 14.8032 10.7378 18.3623
221 2 15.4551 10.9652 19.0999
379 2 -16.7066 12.9821 18.9948
378 2 -17.589 13.0205 19.4731
380 2 -15.7814 12.5198 19.0579
381 2 -15.0733 12.0761 18.4157
382 2 -14.0649 12.2026 18.3591
228 2 18.9978 12.6397 18.3211
227 2 18.7911 12.4485 19.3216
23 1 17.0062 -12.501 19.718
24 1 17.7798 -12.1052 20.2508
26 1 19.3891 -12.5095 20.1569
177 1 -18.5112 -11.7133 20.0749
178 1 -17.5307 -11.5811 20.0001
25 1 18.7225 -11.6766 20.2514
222 2 16.0862 11.0625 19.8443
223 2 16.9396 11.3151 20.2404
224 2 17.8453 11.0194 20.6875
376 2 -19.1023 12.2434 19.9933
377 2 -18.6146 13.071 19.725
225 2 18.3612 11.8814 20.5835
226 2 19.0254 12.5814 20.2862
ITEM: TIMESTEP
10000
ITEM: NUMBER OF ATOMS
400
ITEM: BOX BOUNDS ff ff ff
-3.7000000000000000e+01 3.7000000000000000e+01
-3.7000000000000000e+01 3.7000000000000000e+01
-3.7000000000000000e+01 3.7000000000000000e+01
ITEM: ATOMS id type x y z
103 1 -1.30172 -12.0982 -29.3945
101 1 -0.0726086 -13.0667 -29.8139
102 1 -0.393093 -12.3972 -29.1625
100 1 0.846386 -13.167 -30.1985
99 1 1.78864 -12.9217 -29.8205
98 1 2.75038 -12.768 -29.449
97 1 3.7056 -12.5311 -29.2112
305 2 -4.14249 11.6762 -29.7235
304 2 -3.2213 11.3998 -29.3456
303 2 -2.26001 11.0505 -29.138
301 2 -0.298339 10.7565 -29.162
300 2 0.638922 10.6499 -29.5955
299 2 1.67275 10.8866 -29.5235
306 2 -4.81353 12.2106 -29.1802
107 1 -4.99579 -11.9692 -28.1866
104 1 -2.24423 -12.2894 -29.0402
96 1 4.49365 -12.6425 -28.6179
95 1 5.51311 -12.4282 -28.4543
94 1 6.4084 -12.3692 -27.9721
93 1 7.28788 -12.9002 -27.9729
92 1 8.35938 -12.8096 -27.7902
106 1 -4.12464 -11.7436 -28.5923
105 1 -3.12014 -11.786 -28.8326
310 2 -7.81728 11.7657 -27.8732
302 2 -1.27854 10.8381 -28.8131
298 2 2.47126 10.8784 -28.8651
297 2 3.47063 10.809 -28.7872
296 2 4.22645 11.4157 -28.425
295 2 5.08957 11.6858 -27.9944
309 2 -7.33853 12.4403 -28.4986
307 2 -5.73986 12.593 -29.0604
308 2 -6.5954 12.0774 -29.1172
111 1 -7.84739 -11.8118 -26.2512
108 1 -5.66903 -11.8586 -27.4206
109 1 -6.58174 -12.0656 -27.0683
91 1 9.126 -12.7495 -27.1426
90 1 10.0826 -12.9952 -26.7942
110 1 -6.87406 -11.487 -26.3164
312 2 -9.32838 11.6294 -26.5339
311 2 -8.55044 11.6904 -27.1741
293 2 6.51085 11.4407 -26.8872
292 2 7.45394 11.1564 -26.5343
294 2 5.9714 12.0175 -27.5335
89 1 9.99384 -13.59 -25.9567
88 1 10.4069 -13.5617 -25.0472
113 1 -9.16338 -12.1271 -24.7416
112 1 -8.65767 -11.8855 -25.5729
313 2 -10.0051 11.4147 -25.7915
291 2 7.93866 11.6479 -25.8093
290 2 8.77831 11.6421 -25.2283
289 2 9.83613 11.6883 -25.3186
288 2 10.8349 11.6465 -25.1381
287 2 11.424 11.2679 -24.4058
314 2 -10.5864 11.8634 -25.0884
87 1 11.2079 -13.3845 -24.3872
115 1 -10.8914 -11.8608 -23.6393
114 1 -10.0234 -12.0561 -24.1267
86 1 11.8649 -12.8051 -23.7873
85 1 12.4807 -12.7013 -22.9958
116 1 -11.5092 -11.6627 -22.881
316 2 -11.9819 11.7311 -23.8941
286 2 12.2355 11.4558 -23.843
285 2 11.9112 11.2644 -22.8952
317 2 -12.5888 11.9616 -23.0864
315 2 -11.2082 12.0213 -24.398
84 1 12.8325 -12.431 -22.0902
118 1 -13.0725 -11.0234 -21.8201
117 1 -12.3639 -11.3769 -22.4903
284 2 12.1643 11.5652 -21.9204
319 2 -13.6677 11.9881 -21.3332
318 2 -13.2445 12.177 -22.2974
83 1 13.2991 -12.203 -21.2299
82 1 13.6806 -12.8913 -20.6262
120 1 -13.1898 -11.7001 -19.9057
119 1 -13.2885 -11.4394 -20.8829
282 2 12.9999 11.7517 -20.1321
320 2 -13.7844 12.1049 -20.3317
283 2 12.7399 11.9178 -21.1401
121 1 -12.8457 -11.9308 -18.9251
81 1 13.5943 -12.8795 -19.6043
80 1 13.5305 -12.8024 -18.6066
281 2 13.2349 11.6431 -19.1238
322 2 -13.7064 11.9749 -18.4513
321 2 -13.9992 11.856 -19.3788
280 2 12.8307 11.9667 -18.2393
122 1 -13.1355 -12.2717 -18.0351
123 1 -13.371 -12.1374 -17.0711
78 1 13.0427 -12.506 -16.7536
79 1 13.5483 -12.8322 -17.6083
323 2 -13.9242 11.9751 -17.4189
279 2 13.1618 12.1722 -17.304
124 1 -13.7316 -11.8869 -16.131
125 1 -13.5529 -11.8265 -15.0882
77 1 12.9612 -12.1596 -15.7983
324 2 -13.7339 11.7492 -16.43
277 2 12.6593 11.5169 -15.5583
325 2 -13.4929 11.8745 -15.4696
278 2 12.9321 12.0804 -16.3383
76 1 13.03 -12.1035 -14.7489
75 1 12.8741 -12.2471 -13.7564
126 1 -13.5268 -11.4422 -14.1197
327 2 -13.1286 11.7121 -13.4982
276 2 13.1275 11.5043 -14.6376
326 2 -13.3701 12.1411 -14.4687
275 2 13.037 12.2196 -13.9288
74 1 13.3413 -12.313 -12.827
73 1 12.7976 -12.1711 -12.0157
128 1 -12.7299 -11.7991 -12.2079
127 1 -13.0208 -11.6727 -13.2551
274 2 13.0164 11.7396 -13.0499
273 2 12.8696 11.55 -12.0667
328 2 -12.8774 12.0325 -12.5191
129 1 -12.7624 -12.2173 -11.29
72 1 12.33 -12.3626 -11.044
329 2 -12.3038 11.5779 -11.7782
330 2 -12.2973 11.5613 -10.7525
272 2 12.7615 11.8329 -11.1035
130 1 -12.6688 -12.1703 -10.2293
131 1 -12.2944 -12.2273 -9.23493
71 1 12.1872 -12.4022 -10.0156
70 1 12.2763 -12.2815 -9.00678
331 2 -12.0196 11.6984 -9.72111
332 2 -11.7734 11.7646 -8.71835
270 2 12.2821 11.4006 -9.20296
271 2 12.4797 11.8103 -10.1426
132 1 -12.0332 -12.6543 -8.38471
133 1 -11.3356 -12.5895 -7.65027
68 1 11.4269 -12.4886 -7.17725
69 1 11.7193 -12.6392 -8.15151
268 2 11.3937 11.2857 -7.36302
269 2 11.8144 11.0962 -8.30853
333 2 -11.4127 12.0837 -7.86188
134 1 -11.0623 -12.3527 -6.7216
135 1 -10.3364 -12.2844 -5.89661
67 1 11.442 -12.3888 -6.1538
267 2 11.0286 11.0475 -6.42665
334 2 -11.0534 12.2305 -6.90229
335 2 -10.558 11.9793 -6.00632
136 1 -9.99619 -12.5615 -4.96046
137 1 -9.58276 -12.9502 -4.08434
66 1 10.9376 -12.6902 -5.3112
65 1 10.5513 -12.5003 -4.36722
264 2 9.32934 11.6722 -4.17752
265 2 9.89298 11.2174 -4.91119
266 2 10.6142 10.9071 -5.50768
336 2 -9.96553 12.1925 -5.23076
337 2 -9.5152 12.2287 -4.33646
138 1 -8.72161 -12.9596 -3.54073
139 1 -8.19444 -12.6279 -2.70547
64 1 9.86805 -12.4098 -3.61241
63 1 9.05617 -12.5094 -2.93702
263 2 8.90865 11.7743 -3.26511
338 2 -9.18406 11.9619 -3.39955
339 2 -8.63901 12.0245 -2.58147
140 1 -7.4706 -12.7515 -1.92916
141 1 -6.85536 -12.8252 -1.08306
62 1 8.62635 -12.4066 -1.984
61 1 8.1837 -12.4961 -1.08905
262 2 8.46382 11.7128 -2.27242
340 2 -8.43419 12.3353 -1.63698
341 2 -7.81381 12.1725 -0.90639
261 2 7.84463 11.816 -1.44283
142 1 -6.3477 -12.591 -0.244022
143 1 -5.59973 -12.513 0.501743
59 1 6.8907 -12.708 0.446676
60 1 7.49778 -12.5988 -0.309567
259 2 7.02217 11.3689 0.348855
260 2 7.45187 11.7646 -0.487316
342 2 -7.13827 12.0373 -0.130205
343 2 -6.44578 11.8502 0.65443
144 1 -5.23822 -12.5962 1.40766
145 1 -4.47917 -12.4852 2.13759
57 1 5.98851 -12.2585 2.06448
58 1 6.59002 -12.7967 1.46412
344 2 -5.83743 11.6918 1.44605
257 2 6.02452 11.6049 2.08822
258 2 6.49171 11.4246 1.2215
345 2 -5.40008 11.9386 2.32705
146 1 -4.26285 -12.7379 3.10021
56 1 5.4853 -11.9684 2.88383
55 1 4.82834 -12.0722 3.67149
255 2 4.60315 11.7037 3.64317
256 2 5.34742 11.7655 2.86849
346 2 -4.74266 11.9339 3.12852
147 1 -3.83008 -12.5781 4.04186
148 1 -3.16857 -12.7495 4.75741
54 1 4.30054 -12.0349 4.57686
53 1 3.64167 -11.4549 5.19605
347 2 -4.11194 12.0745 3.9452
348 2 -3.64843 12.0513 4.80328
253 2 2.99916 11.8949 5.02147
254 2 3.84725 11.8458 4.41754
149 1 -2.67471 -12.6363 5.64442
150 1 -2.0804 -12.4554 6.46725
51 1 2.27395 -11.8908 6.69358
52 1 2.96975 -11.7083 5.953
349 2 -3.0353 11.9879 5.56794
350 2 -2.23201 11.9688 6.23798
351 2 -1.63118 12.2514 7.03044
251 2 1.81735 11.965 6.70335
252 2 2.42496 12.017 5.88923
152 1 -2.32987 -11.8927 7.64855
151 1 -1.38911 -12.1133 7.20325
200 1 -0.433829 -12.2528 7.70774
1 1 0.623212 -12.4135 7.66605
2 1 1.09569 -12.8421 8.51216
50 1 1.61167 -12.1837 7.395
153 1 -3.04344 -11.6711 8.32665
49 1 2.20948 -11.8047 8.18249
48 1 3.22538 -11.7271 8.47814
354 2 -4.54312 12.4643 8.05921
353 2 -3.58786 12.5977 7.71484
352 2 -2.59653 12.5055 7.39505
399 2 -1.26262 12.5404 8.42342
400 2 -0.749197 12.2228 7.63441
201 2 0.315254 12.411 7.74452
250 2 1.30299 12.2719 7.5179
249 2 2.28111 12.0084 7.85231
202 2 0.944181 11.9422 8.43666
248 2 3.20909 12.3761 8.16154
247 2 4.09859 12.6445 8.51359
156 1 -5.7964 -11.885 8.84828
197 1 -2.63998 -12.6865 9.5929
196 1 -3.63865 -12.5349 9.82435
199 1 -0.813712 -12.517 8.66978
198 1 -1.71106 -12.5967 9.21246
3 1 1.73092 -13.0117 9.24914
4 1 2.29015 -13.1549 10.0822
47 1 4.09633 -11.8228 9.08747
159 1 -8.73227 -11.6486 9.93758
160 1 -9.70925 -11.4856 9.96572
158 1 -7.7482 -11.7822 9.62665
157 1 -6.8021 -11.7608 9.16877
155 1 -4.76295 -11.7138 8.98895
154 1 -3.92374 -11.2797 8.70136
46 1 5.11046 -11.685 9.19617
45 1 6.03945 -11.698 9.67038
203 2 1.49272 11.6242 9.28787
204 2 2.16571 11.2751 9.94269
357 2 -6.99353 12.0844 9.58389
356 2 -6.09644 12.4183 9.19403
355 2 -5.18171 12.2003 8.77791
397 2 -2.50276 13.009 9.84199
398 2 -1.88685 13.0563 9.02589
246 2 5.0304 12.4464 8.91188
245 2 5.96113 12.185 9.23714
244 2 6.82035 12.4283 9.69845
193 1 -6.17872 -12.5401 11.5447
195 1 -4.48189 -12.7161 10.4059
194 1 -5.27394 -12.5954 11.0312
5 1 3.0767 -12.8006 10.6512
6 1 3.47177 -13.139 11.5481
41 1 9.45901 -11.8779 11.5411
163 1 -12.448 -11.6708 11.3447
162 1 -11.4868 -11.7272 11.0163
161 1 -10.5759 -11.4879 10.5032
44 1 6.70613 -11.3361 10.399
42 1 8.63039 -11.515 11.0153
43 1 7.71294 -11.2586 10.7567
206 2 3.73351 11.5079 11.1901
205 2 2.93846 11.3801 10.6008
361 2 -10.3329 12.5886 11.6156
360 2 -9.44624 12.7629 11.1638
359 2 -8.57956 12.6625 10.6209
358 2 -7.83735 12.0249 10.2705
395 2 -3.52767 12.8523 11.5491
396 2 -2.99196 12.658 10.6683
243 2 7.60874 12.4744 10.3607
242 2 8.53418 12.3613 10.7972
241 2 9.44244 12.0029 11.0523
240 2 10.2646 12.1633 11.7066
166 1 -15.0517 -11.9046 12.8559
165 1 -14.0881 -11.857 12.5092
191 1 -7.38422 -13.0118 13.0035
192 1 -6.93769 -12.9139 12.108
7 1 4.36618 -13.2089 12.0424
8 1 4.85737 -12.897 12.8204
9 1 5.88964 -12.8804 13.083
40 1 10.3712 -12.0602 11.9262
39 1 11.0992 -12.1742 12.6264
164 1 -13.1747 -11.7513 12.0949
208 2 5.43552 11.5542 12.2458
207 2 4.46139 11.4557 11.8291
209 2 5.97812 11.2416 13.0365
365 2 -13.8669 12.6813 12.8679
364 2 -12.8542 12.6719 12.7985
363 2 -11.8615 12.7332 12.5986
362 2 -11.3151 12.41 11.8331
394 2 -4.21817 12.7566 12.3364
393 2 -5.01373 12.6085 12.9714
239 2 11.0601 12.5422 12.1797
238 2 11.7467 12.9224 12.8341
237 2 12.689 13.2769 13.1537
167 1 -15.7307 -11.8978 13.6229
189 1 -8.90436 -12.839 14.4578
188 1 -9.7782 -13.2305 14.9187
190 1 -8.06797 -12.9899 13.8025
10 1 6.67532 -12.987 13.8402
11 1 7.65023 -12.959 13.9648
12 1 8.42584 -13.0844 14.6292
37 1 12.2975 -12.1422 13.8346
36 1 13.214 -12.2371 14.0937
35 1 14.1449 -12.1535 14.4459
34 1 14.9576 -12.6588 14.8096
33 1 16.0133 -12.6409 14.9008
170 1 -18.2868 -11.5033 14.9212
169 1 -17.2838 -11.4101 14.818
168 1 -16.5261 -11.6083 14.1232
38 1 11.4955 -11.6717 13.4249
210 2 6.86473 11.3094 13.467
212 2 8.31904 11.8006 14.567
367 2 -15.2939 12.3978 14.2398
366 2 -14.4965 12.6927 13.6639
390 2 -7.2291 12.0176 14.7611
392 2 -5.55135 12.1522 13.7574
391 2 -6.38426 11.8094 14.2316
211 2 7.49109 11.9403 13.9989
236 2 13.4769 13.276 13.8305
235 2 14.1166 13.0132 14.5146
13 1 8.62424 -13.4276 15.5794
14 1 9.49677 -13.8913 15.7949
171 1 -18.9661 -11.8583 15.5005
172 1 -19.0221 -11.9202 16.4734
186 1 -11.3248 -12.703 16.0697
187 1 -10.5889 -12.7342 15.3512
32 1 16.967 -12.6052 15.1179
31 1 17.2429 -12.4824 16.082
388 2 -9.05682 11.6999 15.6
213 2 9.18322 11.5449 15.038
214 2 10.0475 11.154 15.4445
215 2 11.0559 10.9406 15.6606
216 2 11.731 11.0296 16.4244
369 2 -16.3759 11.85 15.7781
368 2 -15.7553 12.2502 15.1554
387 2 -9.67083 11.9526 16.3915
389 2 -8.23581 11.9783 15.0322
234 2 14.818 12.9502 15.2413
233 2 15.7173 12.5009 15.4786
232 2 16.3689 13.1237 16.0411
231 2 17.1807 13.6613 16.3124
15 1 10.0923 -13.9198 16.6476
16 1 10.9467 -13.8558 17.2435
17 1 11.5944 -13.5153 17.9681
183 1 -13.9228 -12.0467 17.6808
185 1 -12.2429 -12.6163 16.5884
184 1 -13.1878 -12.3958 17.0957
18 1 12.6143 -13.3067 17.9668
19 1 13.3707 -12.6086 18.0937
30 1 17.7154 -12.4669 16.9728
29 1 17.8577 -12.513 18.0096
173 1 -19.0811 -11.297 17.3006
373 2 -18.9082 11.025 18.1003
372 2 -18.4591 11.7803 17.5932
370 2 -16.9958 11.576 16.5634
371 2 -17.9982 11.5376 16.6994
217 2 12.7278 11.2676 16.5451
218 2 13.6798 11.5834 16.7664
219 2 13.9166 10.7635 17.4355
220 2 14.5976 10.2696 18.0163
383 2 -13.3168 12.3946 17.8192
384 2 -12.3768 12.4601 17.3948
385 2 -11.356 12.4591 17.4212
386 2 -10.5008 12.005 17.0258
230 2 17.5032 13.5315 17.2298
179 1 -17.0253 -12.162 19.3667
181 1 -15.4995 -12.5377 18.5782
180 1 -16.1206 -12.6808 19.3688
182 1 -14.6493 -11.9794 18.3548
20 1 14.2782 -12.6867 18.5273
21 1 15.0223 -12.5765 19.1764
22 1 15.9668 -12.6458 19.5822
28 1 18.5146 -11.9173 18.5184
27 1 18.7037 -12.8743 18.43
26 1 19.1014 -12.8533 19.3592
175 1 -18.9148 -11.7657 18.7508
174 1 -18.5628 -11.0621 18.1138
221 2 15.4912 10.365 18.4446
222 2 16.1912 11.0388 18.7601
223 2 16.8302 11.2345 19.5514
226 2 18.4634 11.6306 19.3077
374 2 -19.0992 11.9152 18.5564
375 2 -19.6209 12.0339 19.4088
379 2 -17.135 12.8409 18.4084
378 2 -17.1476 12.823 19.4671
377 2 -17.9148 12.2347 19.4941
380 2 -16.2792 12.3731 18.3812
381 2 -15.2714 12.6099 18.4086
382 2 -14.2539 12.5528 18.2795
228 2 18.419 12.9691 18.8966
227 2 18.9949 12.1413 18.6534
229 2 17.8828 13.6093 18.2379
177 1 -18.0651 -11.9327 20.2451
23 1 16.8334 -12.323 20.0746
24 1 17.7965 -12.266 19.8192
25 1 18.4954 -12.91 20.2256
176 1 -18.7984 -11.4983 19.7255
178 1 -17.2277 -11.3226 20.0016
376 2 -18.717 11.7364 19.7988
224 2 17.7617 11.4851 19.9195
225 2 18.5175 12.0039 20.2594
