LAMMPS data file via write_data, version 29 Sep 2021, timestep = 13752000

400 atoms
2 atom types
404 bonds
1 bond types

-3.12 3.12 xlo xhi
-3.12 3.12 ylo yhi
-15.6 15.6 zlo zhi

Masses

1 1
2 1

PairIJ Coeffs # lj/cut

1 1 1 1 1.12246
1 2 1 1 1.12246
2 2 1 1 1.12246

Bond Coeffs # fene

1 30 1.5 1 1

Atoms # angle

169 0 1 -0.7821655298688065 -2.1155937261129565 -14.491220844773324 0 0 0
168 0 1 -1.5201372368872499 -1.7027330896851216 -13.953940356973726 0 0 0
171 0 1 0.08885107476635787 -2.4636988223253753 -13.93950987608059 0 0 0
170 0 1 0.17419837986784106 -2.113675810703219 -14.840771207206215 0 0 0
185 0 1 1.3896280215434882 -0.6017003652986435 -15.011464142871427 0 0 0
186 0 1 0.5950855858451386 -1.1906061234665817 -15.00574881557909 0 0 0
179 0 1 -1.0008778884031688 0.6185983010099806 -14.8515084435718 0 0 0
178 0 1 -1.5706701470264888 1.1788326438583918 -14.274746831323403 0 0 0
182 0 1 1.7332192626766356 0.6305895028400408 -14.788773569483096 0 0 0
180 0 1 -0.1687256320639807 0.18579653517736416 -14.873071555497923 0 0 0
181 0 1 0.7624919830277178 0.32394449891700766 -14.88898140988391 0 0 0
183 0 1 2.5940986846363994 0.3600702523261019 -14.535378056807343 0 0 0
184 0 1 2.3398486630687367 -0.4750670149844601 -14.915295562772819 0 0 0
304 0 2 1.3195413828050018 2.1202904603304 -14.244391427471975 0 0 0
303 0 2 0.4695407561045899 2.4136308122683596 -13.90070532901522 0 0 0
301 0 2 -0.3482136906923515 1.2764766189412873 -14.270507231545256 0 0 0
166 0 1 -2.025848348271108 -0.6418017414299326 -12.637475077153473 0 0 0
167 0 1 -1.4740278405117677 -1.3471622026308374 -13.0577771210715 0 0 0
172 0 1 -0.31097072658806607 -2.330248760208317 -13.06966755189943 0 0 0
173 0 1 -0.48344099053002243 -1.437859282551281 -13.405143986234561 0 0 0
187 0 1 0.6505355046161478 -0.7448532192622359 -14.136103778896784 0 0 0
188 0 1 0.9446528169058475 -1.6801158772413445 -13.835154842765265 0 0 0
177 0 1 -2.0608682208518276 0.45104554952945636 -14.60779345776599 0 0 0
176 0 1 -1.4210830159269001 -0.31238079616699693 -14.615679799341494 0 0 0
175 0 1 -0.9545423577319877 -0.9700584524973591 -15.050055705039895 0 0 0
299 0 2 -0.821098792293125 1.1489462810101694 -13.33183273499596 0 0 0
174 0 1 -0.5522203716478655 -0.7799663238720312 -14.101270487610087 0 0 0
300 0 2 -0.5927130775306139 0.4323357985713228 -13.88822660180541 0 0 0
308 0 2 1.5548990948109334 -0.10105868990515561 -13.822606531508564 0 0 0
309 0 2 2.3178915305121075 -0.684302070272409 -13.512607816971732 0 0 0
310 0 2 2.3237639529251126 -0.5952923300100493 -12.569544385993376 0 0 0
298 0 2 -1.465267774888962 1.7494235414325745 -12.89431164180441 0 0 0
297 0 2 -1.4781201236838928 0.9878133775863611 -12.293034403869559 0 0 0
296 0 2 -1.4664360744291651 1.8761475339802562 -11.829553387738665 0 0 0
302 0 2 0.1995287540717116 1.9452049784444856 -14.693173893954071 0 0 0
306 0 2 2.021322529604417 1.2925067827720669 -13.201445454669987 0 0 0
305 0 2 2.0612817763553664 1.5551699987349439 -14.111524351952909 0 0 0
307 0 2 1.2955324006152704 0.7547944654803483 -13.444780689335461 0 0 0
165 0 1 -1.3298995707485923 -0.7789078991353676 -11.952390219146409 0 0 0
164 0 1 -1.6705926577012893 -1.639778679108501 -11.653699821953378 0 0 0
191 0 1 0.5048073987305128 -1.5892947318393549 -12.575418920126104 0 0 0
190 0 1 0.8479594481370458 -2.389788123806361 -12.12750129427312 0 0 0
192 0 1 0.09720732735750241 -1.305178529684063 -11.735591858327725 0 0 0
189 0 1 1.2008277446145834 -2.2185590434788813 -13.045937259163269 0 0 0
163 0 1 -1.630691708838742 -1.8629442849874407 -10.717404502616219 0 0 0
162 0 1 -1.9377167612293944 -0.9734128619419198 -10.707503412250869 0 0 0
160 0 1 -1.7387979254661325 -0.06085842443241327 -11.186449771439552 0 0 0
161 0 1 -2.5833679998800783 -0.46883203052997435 -11.264189544026708 0 0 0
295 0 2 -0.6798537709034386 2.355506935447397 -11.961578192548288 0 0 0
312 0 2 1.2542359756521206 0.011696931942749733 -11.930570258235583 0 0 0
313 0 2 0.7464796405098113 0.6261295042358802 -12.491254279133784 0 0 0
311 0 2 1.9090877492352925 0.32927386890545535 -12.57874940932016 0 0 0
279 0 2 0.41260648784426585 -0.1904713984832092 -9.81879756574845 0 0 0
277 0 2 1.4585776442321878 -0.14065071409190819 -10.291525627455432 0 0 0
278 0 2 0.6673048803353075 -0.30198213571333743 -10.719019601481437 0 0 0
294 0 2 -0.5310422721266219 1.6766215791064842 -11.326423738963976 0 0 0
314 0 2 0.7293544665226707 1.466037197453664 -13.000004100874891 0 0 0
315 0 2 0.6510190925863955 1.640381605024924 -12.07105602924684 0 0 0
280 0 2 -0.13643614825966363 0.5093415119940841 -9.991744738280333 0 0 0
293 0 2 -0.2667101239197789 1.5575562907573517 -10.38761104728014 0 0 0
316 0 2 1.25406101219533 1.9075557987979062 -11.319466452654355 0 0 0
317 0 2 1.6121101497082797 1.0673095874633358 -11.547632222468625 0 0 0
193 0 1 -0.3834761137600716 -1.278092855172958 -10.825965717558537 0 0 0
194 0 1 -0.6401106004902553 -0.35659910395737393 -10.54266231206682 0 0 0
273 0 2 0.5060527744107929 -2.3757492742936637 -9.520257126570886 0 0 0
274 0 2 1.3110054215420726 -1.8412692822246068 -9.587744272142329 0 0 0
275 0 2 1.72371990761193 -1.768611468048541 -10.49616974908502 0 0 0
159 0 1 -2.2428157973515455 0.5214768059505288 -10.608457816172972 0 0 0
156 0 1 -1.3230638031452648 -0.091173169160446 -9.551213567986546 0 0 0
157 0 1 -1.648164317281889 0.7337164294723337 -9.433186712833503 0 0 0
281 0 2 0.23903656063216663 0.8604538804502206 -9.14797138438201 0 0 0
276 0 2 1.8102060909685127 -0.8840842099488312 -10.723078444804585 0 0 0
320 0 2 2.4422277922107685 0.8036584510406196 -9.552466108412762 0 0 0
318 0 2 2.1651359643752253 1.40700772313784 -10.805558046798723 0 0 0
321 0 2 2.099688430481753 -0.0636927921958708 -9.330973291948771 0 0 0
319 0 2 1.7522606256999538 1.4152872962397711 -9.93208433901066 0 0 0
292 0 2 0.6319621117751092 1.198813375229048 -10.422409755464631 0 0 0
158 0 1 -1.790857424894857 1.2596464530809395 -10.298083456605692 0 0 0
291 0 2 0.6496379119760401 2.1611650687585886 -10.101289082316494 0 0 0
290 0 2 -0.2795861568151381 2.4176155853415433 -9.90700191572255 0 0 0
153 0 1 -1.6129378840237425 -1.3995878229983636 -7.715100308602911 0 0 0
270 0 2 -0.28217410476255267 -2.399525239708938 -8.073456481299473 0 0 0
271 0 2 -0.6992471324495216 -1.960559481028294 -8.98797280498597 0 0 0
272 0 2 -0.4163275175466338 -2.257395065675911 -9.827606847878462 0 0 0
323 0 2 1.643748992696003 -1.617977771592802 -8.171330956720027 0 0 0
322 0 2 1.9735455955130108 -0.8315758154876179 -8.6937574665755 0 0 0
155 0 1 -1.9429734147376498 -0.7801409949514765 -9.107045666160115 0 0 0
154 0 1 -1.7511146039698802 -1.5962115316937802 -8.634705941361053 0 0 0
282 0 2 0.5145462907299456 1.7696680477302789 -8.885659622386983 0 0 0
195 0 1 -1.0478076110015473 -1.0617916953776971 -10.044109990738992 0 0 0
196 0 1 -0.46541260941747975 -0.6774553021727713 -9.379610585905677 0 0 0
289 0 2 -0.44806206804724497 1.714522669851344 -9.256415731099935 0 0 0
197 0 1 -0.9013471093549147 -0.7608326253618832 -8.50613044946643 0 0 0
288 0 2 -0.4737750517546389 1.42229742061372 -8.292182171088852 0 0 0
287 0 2 -0.31714408823837914 1.9666686991023878 -7.509176439297827 0 0 0
286 0 2 0.6160699664191536 1.8299144740522124 -7.773255468317411 0 0 0
285 0 2 1.5445755230040106 1.5914505755889294 -7.308941033864713 0 0 0
283 0 2 1.3988499006133837 1.22657264799332 -8.854644138876234 0 0 0
284 0 2 1.7365589548320033 1.8414676704914694 -8.223727186895305 0 0 0
152 0 1 -1.0981992272255028 -2.1749521262209686 -7.336411520412721 0 0 0
151 0 1 -1.2762806944188172 -1.962580883127499 -6.380854343771017 0 0 0
150 0 1 -0.7229403439435578 -1.708551985290719 -5.660772650424804 0 0 0
269 0 2 0.004216498367922428 -1.4943490374570652 -7.6805517523320415 0 0 0
268 0 2 0.5041401803522194 -1.9315182075805435 -6.984949157342166 0 0 0
324 0 2 0.8762934277420721 -1.023552483900846 -8.329712369705197 0 0 0
267 0 2 0.3880537019555452 -1.4331305823365423 -6.177648088892777 0 0 0
266 0 2 1.0132088507379935 -2.089512303241722 -5.820818166283199 0 0 0
2 0 1 -2.305764093242927 -0.1583122878999613 -7.502491179267714 0 0 0
199 0 1 -1.1286390337641523 -0.6783386138639533 -6.914157673896988 0 0 0
200 0 1 -1.7432849892513365 -1.0964931671029894 -6.280808302059038 0 0 0
1 0 1 -2.323236105556483 -0.38608974937773494 -6.534831422294777 0 0 0
198 0 1 -1.0031049843139537 -0.18422382826703232 -7.72433702106209 0 0 0
328 0 2 1.2771839926101205 0.24953740481477021 -7.326898792993691 0 0 0
325 0 2 0.041556468275921875 -0.4805151625873616 -8.534287776464542 0 0 0
326 0 2 0.7390038250397023 0.04641139281697198 -8.1797663616292 0 0 0
327 0 2 1.722108390208946 0.10565023287506616 -8.184460354773643 0 0 0
3 0 1 -2.0326029250731272 0.6328193872717298 -7.0606856056805425 0 0 0
5 0 1 -1.6331581399026638 1.6976672436098825 -6.800344514228656 0 0 0
4 0 1 -1.397479885336112 1.039138787065414 -7.583230963298598 0 0 0
6 0 1 -1.032060928245895 1.7325222052208897 -6.0673613345158435 0 0 0
7 0 1 -0.5430999495916953 2.4954432937969107 -5.723225154427407 0 0 0
330 0 2 2.5102065156041347 0.2681198386646955 -6.915272953544593 0 0 0
329 0 2 1.9105376733718615 -0.46239502027030377 -7.274864718338179 0 0 0
331 0 2 2.292757566399107 0.7946405887593747 -6.175594640960196 0 0 0
262 0 2 -0.08263102063027614 -1.78759313044723 -4.001653920813977 0 0 0
263 0 2 0.7376100112021542 -2.0472125177874574 -4.378294341840556 0 0 0
264 0 2 1.0599479017918811 -1.2934038552705411 -4.760281233315933 0 0 0
265 0 2 1.5767707508032167 -1.346411128247902 -5.5701081921377105 0 0 0
13 0 1 0.80916399663077 0.01673088076477015 -6.026143942697849 0 0 0
14 0 1 1.7090628776468622 -0.2627379429189085 -5.864934856240005 0 0 0
148 0 1 -1.6912669377816087 -1.2425324493912315 -4.07746855343559 0 0 0
149 0 1 -1.2440049246650484 -1.2905076862820268 -4.920127733620964 0 0 0
51 0 1 -1.346783486160059 -0.05028394923807525 -5.286585696681319 0 0 0
48 0 1 -2.3160244390716542 0.11729843675744335 -4.62657628577542 0 0 0
9 0 1 0.41817671516253135 1.3930206525779412 -5.178292595987902 0 0 0
10 0 1 0.9099700989669155 2.0328281615701287 -5.648228242077243 0 0 0
52 0 1 -0.8393406691433596 0.6959746114065359 -4.82463366700188 0 0 0
17 0 1 0.6759661011130398 0.26247299892313364 -4.34980800460677 0 0 0
12 0 1 0.08756443832536039 0.5640163091918845 -6.184217429051258 0 0 0
11 0 1 0.8289982611168428 1.143650572966965 -6.171022317034961 0 0 0
16 0 1 1.53771858516172 0.10692679797458467 -4.0125648315613605 0 0 0
49 0 1 -2.280555227516954 0.7978990976744614 -5.281301605109483 0 0 0
50 0 1 -2.249815541468948 -0.06956994541719483 -5.662008440472203 0 0 0
333 0 2 1.812095223694282 1.3575521054468218 -4.517144006224936 0 0 0
8 0 1 -0.22258527684139273 2.031425824049388 -4.959427592638316 0 0 0
332 0 2 1.9469585693727949 1.3981515264449664 -5.465294489737102 0 0 0
147 0 1 -1.440752557315553 -0.9448984819681522 -3.1576885315036556 0 0 0
261 0 2 0.17771294287347653 -2.250732000961532 -3.198724168061071 0 0 0
258 0 2 -0.4571893231816832 -2.33804321312935 -0.4744491030707544 0 0 0
259 0 2 -0.13795765869420762 -2.1887204818794292 -1.408061560837119 0 0 0
146 0 1 -1.4777308238438869 -1.4168999691527837 -2.3455039530759083 0 0 0
260 0 2 0.060124325400687864 -2.0205290246343135 -2.3215896909393825 0 0 0
46 0 1 -2.0940240862898984 0.13602298946657573 -3.1323248258686425 0 0 0
47 0 1 -1.5979207877726411 0.05940646694508971 -4.040756529147219 0 0 0
18 0 1 0.09629564249437456 -0.08799717144275629 -5.036748623619518 0 0 0
20 0 1 0.09235556978484666 -0.3495839506391674 -3.4868472553602747 0 0 0
19 0 1 0.12839695760135145 -0.7735436683579385 -4.321202311336179 0 0 0
15 0 1 1.6478304113486602 -0.2919126877642926 -4.855949142999754 0 0 0
340 0 2 1.5112461757523 -0.7728545483681383 -3.074671381719799 0 0 0
334 0 2 1.1760506870197311 2.144977674334389 -4.384792479334583 0 0 0
53 0 1 -0.6883006333526834 1.456154283763144 -4.231121606173547 0 0 0
54 0 1 -0.9392491112397896 1.3488993370343467 -3.3415069685078214 0 0 0
336 0 2 0.598505228001476 1.557118348891175 -2.879951833946084 0 0 0
55 0 1 -0.4346730866968601 2.110289090859868 -2.958639867852894 0 0 0
335 0 2 0.6494762851301674 1.5093475133749792 -3.859717003790661 0 0 0
145 0 1 -1.873147662423906 -1.7865287109477046 -1.5580071902617958 0 0 0
143 0 1 -1.9395117409787221 -1.377113833763243 -0.16293021218543258 0 0 0
257 0 2 -0.7527202965776532 -2.0845645545826956 0.3671320965278922 0 0 0
256 0 2 -0.6247144890445661 -1.464795119360839 1.1000568882767965 0 0 0
342 0 2 1.8751313878577527 -1.554355728085681 -2.2361726839553087 0 0 0
45 0 1 -2.26756823862571 0.7300299456784665 -2.3917573680762843 0 0 0
144 0 1 -1.3667066763537543 -1.8277193213844862 -0.7268706330295294 0 0 0
41 0 1 -1.9710672546131442 0.36904954029255516 -0.21439746012530406 0 0 0
21 0 1 -0.13543846872283044 0.29625900412595524 -2.7721145083447163 0 0 0
22 0 1 -0.3763237151416814 0.700162009822585 -1.9107878738445083 0 0 0
24 0 1 1.0341941572509725 -0.35123479948905634 -1.327580622994907 0 0 0
42 0 1 -2.2663440526379386 -0.3216515194824073 -0.8044830283989821 0 0 0
23 0 1 0.21503937156517455 0.022142183726035478 -1.5172767207477535 0 0 0
43 0 1 -1.6787455266323648 -0.2587656103392133 -1.5575768494766467 0 0 0
30 0 1 0.23080978102779123 2.5348633755662195 -0.835602504251152 0 0 0
341 0 2 0.9942183559328668 -1.2735920720541125 -2.3993978313265685 0 0 0
339 0 2 1.8662731071664107 0.09835018259340358 -2.8417613831197803 0 0 0
25 0 1 1.5042900168634 0.3529322101164494 -0.8509804872833555 0 0 0
26 0 1 2.4405518359175553 0.40031014374724777 -0.9370956998165084 0 0 0
44 0 1 -2.2449083521567816 0.4737695618738443 -1.4850833892830164 0 0 0
56 0 1 0.13714558101010008 2.4755199482878476 -2.240446865513838 0 0 0
57 0 1 -0.6993181174570211 2.2852569933924425 -1.7380051747931604 0 0 0
338 0 2 1.2966918638646872 0.6513678277366357 -2.3148561470767333 0 0 0
337 0 2 0.6317330457923347 1.2503574899358636 -1.9854242948160998 0 0 0
29 0 1 1.0758529583137855 2.0930821564245212 -0.6749624882381248 0 0 0
142 0 1 -2.1298601728752904 -0.8967843418501968 0.6841560425777603 0 0 0
141 0 1 -2.017497937404399 -1.429366943979627 1.5084777950372623 0 0 0
255 0 2 -0.621160794553715 -1.0114662665434555 0.28734661269028816 0 0 0
254 0 2 0.33373102158505163 -1.2035381824644773 0.3924071709125965 0 0 0
253 0 2 0.41851843483828777 -0.30300444469169685 0.6550678685772908 0 0 0
344 0 2 0.9266281747938253 -1.5105154134856267 -0.9672659672120336 0 0 0
343 0 2 1.8919689689538746 -1.614604125853932 -1.2055371690176908 0 0 0
39 0 1 -0.9890980272749529 0.7671019687205768 -0.15129660385154273 0 0 0
40 0 1 -1.2456755900175642 0.0671324981327898 -0.6926778388578192 0 0 0
31 0 1 0.18988045339542092 1.590972581487137 -0.667799108544179 0 0 0
32 0 1 0.8876452354856234 1.25130216584177 -0.10305423759917655 0 0 0
38 0 1 -0.1020202077633895 0.4895439432549918 -0.38019972931187157 0 0 0
27 0 1 2.3309141566761933 1.1625045106629872 -0.31399453037364755 0 0 0
59 0 1 -1.5524727240842984 1.7426439871299553 -0.8511298795989327 0 0 0
60 0 1 -1.454274934231324 1.8908516403008677 0.07067675618654572 0 0 0
58 0 1 -0.7167692883200443 1.4725899735044499 -1.2491556225140208 0 0 0
28 0 1 1.8545951083450145 1.6827616373978114 -1.0032696599017423 0 0 0
34 0 1 1.3935046730961471 1.8785573425395077 1.3230174844073306 0 0 0
140 0 1 -1.4897923883748485 -1.3819908433849524 2.2915899660063968 0 0 0
138 0 1 -1.116904337295075 -1.2784200049524213 3.5349878158820527 0 0 0
252 0 2 1.0307262127600687 -0.7740327229882266 1.2417765688430018 0 0 0
251 0 2 0.7773052257341075 -1.386739992671904 1.9277207718512304 0 0 0
345 0 2 1.3413379532119112 -0.9387581038650501 -0.27361069339223526 0 0 0
248 0 2 0.7084915109123534 -2.262912904449933 3.0297092861573045 0 0 0
346 0 2 1.486220978650319 -0.12413828983618702 0.24518104926297357 0 0 0
139 0 1 -1.5258021473055676 -1.9495413140580424 3.0554354089894447 0 0 0
65 0 1 -1.4503116618245933 0.4194989641841313 1.4636549360082918 0 0 0
66 0 1 -2.3577359375122335 0.39722834074444185 1.6726497493501251 0 0 0
37 0 1 -0.11090053089146715 0.9140983483061478 0.5207336054646984 0 0 0
351 0 2 0.042183236626849765 0.22752990510010987 2.121017710764768 0 0 0
33 0 1 1.618282432047913 1.4877392423329434 0.4795340333520631 0 0 0
352 0 2 -0.7367673648802575 -0.32728737387037166 2.1328234233216983 0 0 0
353 0 2 -1.1960291415838118 -0.010501387198788521 2.9277974228782027 0 0 0
347 0 2 2.3212444724918178 -0.30334560870119537 0.5620883084782033 0 0 0
348 0 2 2.0155390649545226 -0.40206702959206475 1.4709431012022895 0 0 0
350 0 2 0.9120494675255578 0.703723989925763 1.8297686332288488 0 0 0
349 0 2 1.3015219268695732 -0.16138549030574975 2.0171445473423897 0 0 0
36 0 1 0.242758281909079 1.3319924977424396 1.2803140526920027 0 0 0
63 0 1 -0.9847215796347012 1.5104689062053185 1.8358645229125299 0 0 0
62 0 1 -0.7985052407442883 2.2226899349740683 1.165684910418876 0 0 0
61 0 1 -0.4968332789255225 2.120357547132689 0.22027184864776544 0 0 0
35 0 1 0.6029883287397748 1.9600003849774907 0.7547810045227171 0 0 0
137 0 1 -0.6155965122600866 -2.0520130303126836 3.624954364198719 0 0 0
250 0 2 0.1652587351348279 -0.9702222403327991 2.5492059790583768 0 0 0
249 0 2 -0.04678488159955525 -1.8906163902234678 2.561654998253924 0 0 0
136 0 1 -0.30655681107166416 -2.5322759100052386 4.513694854631737 0 0 0
135 0 1 -0.11999356575872726 -2.545751683591419 5.458610277569724 0 0 0
247 0 2 1.3525467607150456 -1.905321007373978 3.706601657818085 0 0 0
234 0 2 2.257391046118974 -1.1619938318277583 5.310535907857196 0 0 0
203 0 2 -0.7895553403422587 -0.606551743058703 4.5699725847803245 0 0 0
67 0 1 -2.267447492360254 -0.044133831687493456 2.6003695480116473 0 0 0
68 0 1 -2.2211294332024356 0.4981058275719837 3.339655951445649 0 0 0
201 0 2 0.5104481133751256 -0.5674072170461262 3.3445145416504447 0 0 0
202 0 2 -0.11406140615061403 -1.0053954079776275 3.990503567389529 0 0 0
400 0 2 0.5196163277358087 0.3657736146349906 2.9225609110595636 0 0 0
399 0 2 -0.0027756027048165917 0.29235577683933145 3.696430731970732 0 0 0
245 0 2 2.1550558220529177 -0.6134112981334463 2.8678917667862294 0 0 0
246 0 2 1.5194059601461398 -1.3604547613643734 2.9486980456968803 0 0 0
244 0 2 2.2525472925469225 0.27280824935620124 2.5127637688900197 0 0 0
64 0 1 -1.6011165223186485 1.2678395302830914 1.1490298044430625 0 0 0
354 0 2 -0.9890227978685837 0.7471749557255972 3.5723452988121824 0 0 0
355 0 2 -1.0004076491682234 1.7011172137634014 3.4656976675913644 0 0 0
356 0 2 0.010708295741121154 1.6480309229082823 3.7416573751001923 0 0 0
243 0 2 2.183846696766917 1.0577583885359496 1.948872325007447 0 0 0
134 0 1 -0.6634696947552008 -2.2258533439714587 6.194681312776377 0 0 0
206 0 2 -2.095713067889797 -1.4000310821475253 6.818149303842279 0 0 0
205 0 2 -1.821794336666805 -1.618247709510555 5.962972622169911 0 0 0
132 0 1 -1.2347216898162041 -1.8858641141837655 7.690859371913281 0 0 0
133 0 1 -0.6297530567735187 -2.529524045958487 7.136893622727524 0 0 0
233 0 2 1.4067025763150414 -1.578329140141825 5.441868437024118 0 0 0
232 0 2 0.9899756320080366 -0.9812551081271361 4.6887118799750676 0 0 0
235 0 2 2.2733032227471512 -1.1245252501028165 4.293485090418655 0 0 0
69 0 1 -1.9237194010125476 -0.3002713654460045 3.7428500277474295 0 0 0
204 0 2 -1.289050555537129 -1.0183300944041471 5.316952228293474 0 0 0
398 0 2 0.4454390794007784 0.07022773523869169 4.517066168497258 0 0 0
397 0 2 -0.015315730118099611 0.5561705676612336 5.11249665719907 0 0 0
396 0 2 -0.7089640434505504 1.0076791835027032 5.542582741055713 0 0 0
238 0 2 2.1481871141147564 1.0747516356675015 5.223912957064616 0 0 0
237 0 2 2.56806041510935 0.3757241383237938 4.660238591419191 0 0 0
236 0 2 2.3063081669504593 -0.28435124845604015 3.9291296326949383 0 0 0
70 0 1 -2.2924842960682486 -0.0332979365247215 4.599947954722974 0 0 0
71 0 1 -2.0367787015353174 0.8315278454713252 4.807615237953556 0 0 0
357 0 2 0.13085910306648477 1.9491118278874724 4.671068209279774 0 0 0
358 0 2 0.27954204849870457 1.8700326600638575 5.630676065973873 0 0 0
242 0 2 1.9523246327555563 1.3708375574488645 2.829761220802077 0 0 0
241 0 2 1.2634535903937474 1.2230684022572889 3.481552217568234 0 0 0
240 0 2 1.2600295817495568 0.739641034461503 4.287388761734622 0 0 0
239 0 2 1.2627942826740315 0.690528196240217 5.280688705974533 0 0 0
207 0 2 -2.0336299238144653 -0.582630326124052 6.36656374621733 0 0 0
131 0 1 -0.8248431393162822 -1.8343298932800127 8.543024209061025 0 0 0
130 0 1 -0.7877645586729354 -0.9203204928494054 8.465475805834062 0 0 0
230 0 2 0.2725562756972481 -0.34570357790192774 6.36132660027351 0 0 0
208 0 2 -1.4322345039689084 -0.06814727518532132 6.957347579678816 0 0 0
231 0 2 0.5029381009376174 -0.5880908951158995 5.44942509077803 0 0 0
73 0 1 -2.2992307903754146 0.5116219735262753 6.146164659797774 0 0 0
74 0 1 -2.3026673083095437 0.4146943802775478 7.1411257826811365 0 0 0
75 0 1 -2.2838484942605106 -0.06983955495760599 8.008005509318693 0 0 0
395 0 2 -0.8163745500096443 0.9301818908475407 6.519932384982431 0 0 0
394 0 2 0.010255777091827713 1.031264912953396 6.997580326451894 0 0 0
229 0 2 0.9717034398759906 0.2506573559536371 6.319029316869891 0 0 0
393 0 2 0.3740938026917984 1.8988260741001823 7.263360221202619 0 0 0
392 0 2 1.3149425048798629 1.7856218684811362 7.475354222685405 0 0 0
388 0 2 1.3389486086217373 -0.7001814501670779 7.745936775826626 0 0 0
228 0 2 0.7531107702254964 0.029945661252495644 7.271046252039504 0 0 0
387 0 2 1.0099732844087748 -0.7632580087703759 8.629972545710931 0 0 0
362 0 2 -1.0551206403744366 1.4594286320055598 7.4038962995687765 0 0 0
72 0 1 -1.833129531964506 1.2340576953941997 5.661306545683903 0 0 0
360 0 2 -1.135394883838736 2.17977825278177 6.11378644036554 0 0 0
359 0 2 -0.2509555459505624 2.3018091327272163 6.29531258250533 0 0 0
389 0 2 2.1819558587598062 -0.27713587162093073 8.065951064120776 0 0 0
128 0 1 -2.1047791793694803 -1.2227676586127076 8.783141636296683 0 0 0
129 0 1 -1.6481882083634178 -0.843615346799726 8.019144874315147 0 0 0
211 0 2 -0.05762983073564138 -1.7065679963850797 7.1758561578996245 0 0 0
212 0 2 0.21137087422492531 -1.8767663718063046 8.147952587038231 0 0 0
76 0 1 -1.7200684351921578 0.7129192239264243 8.215939788150829 0 0 0
77 0 1 -1.825478100471736 0.431743856491958 9.169623906913136 0 0 0
210 0 2 0.05141575488558656 -0.8856766318061096 7.72696256446741 0 0 0
209 0 2 -0.6392295512563507 -0.6542407820274003 7.0774847256292235 0 0 0
227 0 2 0.6158640233320658 0.738399508120967 7.922666379241161 0 0 0
226 0 2 0.030240323432730653 0.6595538935614463 8.656834848695121 0 0 0
386 0 2 1.5630068066766987 -0.21366596710983626 9.167985103361161 0 0 0
364 0 2 -1.2532573067290755 1.8169989881569537 8.580038791239005 0 0 0
365 0 2 -0.6563655899021952 2.0804928650772965 9.250201868318218 0 0 0
361 0 2 -1.7389160789955511 1.8048451205443417 6.81353229139961 0 0 0
363 0 2 -0.47760685635580125 1.8549083406928828 8.058996363682098 0 0 0
390 0 2 1.8459412676977152 0.40406310445201293 7.456727019961212 0 0 0
391 0 2 2.0715531067866886 1.333665652322351 7.23668970933209 0 0 0
127 0 1 -2.027463750160065 -0.7986490042339839 9.635332975329822 0 0 0
126 0 1 -2.2681089365084475 -0.8851588387365487 10.50245008780773 0 0 0
214 0 2 -0.0881723321273839 -1.3473885484971324 9.348214175653602 0 0 0
215 0 2 -0.6346307838026553 -2.1080468392890976 9.72155969477042 0 0 0
213 0 2 0.47529857410494053 -2.077917548780953 9.050427161533511 0 0 0
382 0 2 1.705993321325909 -1.631001445013796 11.636938987393012 0 0 0
78 0 1 -1.8720655621274696 0.5811355962634793 10.147859711188152 0 0 0
80 0 1 -1.0825197296215046 -0.09958808974017387 11.357690600875353 0 0 0
125 0 1 -2.0946860411981674 -1.4471132132563052 11.313396922767527 0 0 0
79 0 1 -1.8545766139366524 -0.039298462761144654 10.887555666967671 0 0 0
224 0 2 -0.4334502612639103 -0.25364975749147944 9.874529782335323 0 0 0
225 0 2 -0.42399073485426836 -0.12809334114922266 8.92843690736964 0 0 0
385 0 2 2.1067276847733445 -1.0033212587037033 9.050171042789 0 0 0
384 0 2 1.9810000105607013 -0.7114809677447436 9.933890836253175 0 0 0
383 0 2 1.9474313634181022 -1.127776097042393 10.851011619096198 0 0 0
371 0 2 1.7553232885255927 0.14490621783591312 10.619771257580677 0 0 0
120 0 1 -1.68401227933692 1.666233907259576 10.128850257805261 0 0 0
119 0 1 -0.8596034884614593 1.5955352770103228 10.698600202405942 0 0 0
368 0 2 0.9460382844811993 1.9082560486601863 10.776664423437557 0 0 0
366 0 2 0.35966548220908706 1.9829929039438687 8.953218524889415 0 0 0
367 0 2 0.7843746792781483 1.8886166656402725 9.822640785660273 0 0 0
369 0 2 0.666756695979516 0.9744976357521321 10.531865624592674 0 0 0
370 0 2 1.5419890948084987 0.8772765751274447 10.094845135256413 0 0 0
217 0 2 -0.46380807480451763 -2.2828142364447483 11.08598309946743 0 0 0
218 0 2 -1.0882638707312664 -1.6079820046243358 10.880099020364835 0 0 0
222 0 2 0.7275311134300828 -0.6834061948052625 10.852390740701743 0 0 0
221 0 2 0.6893411029878569 -1.1935989686832627 11.71877399654513 0 0 0
216 0 2 0.06603103174242636 -1.9624150826043587 10.351043281701545 0 0 0
220 0 2 -0.22792393629183152 -1.479232111795295 11.980195906983369 0 0 0
219 0 2 -1.157260255265745 -1.497786668234601 11.808691685294557 0 0 0
381 0 2 1.8593010775726964 -1.8503207717324013 12.571859516782999 0 0 0
380 0 2 0.9303195932262702 -1.7890501442985902 12.617543356229971 0 0 0
124 0 1 -2.467802091910455 -0.5860184744643077 11.584753111042787 0 0 0
123 0 1 -2.1335056635317624 0.038414343049222074 12.223327476567773 0 0 0
121 0 1 -2.065589112773835 1.2355848051031024 10.91411007889566 0 0 0
122 0 1 -1.7648409796361841 0.8444335835769564 11.74264002011724 0 0 0
223 0 2 -0.19790478386707172 -0.7193369738120287 10.675640263654481 0 0 0
81 0 1 -0.43502597440961815 -0.15026482603166974 12.051768761154188 0 0 0
84 0 1 0.8829321387901612 0.7372725740780681 12.530069284646862 0 0 0
82 0 1 0.0031447061681919705 0.538548446905345 11.570058113711637 0 0 0
83 0 1 -0.07314079299275796 0.8677365800746286 12.492725740001566 0 0 0
372 0 2 1.7392295166956881 0.9026514538305788 11.2743142169701 0 0 0
379 0 2 0.8512938050918881 -1.1236248859370905 13.304160417545818 0 0 0
378 0 2 1.5388915631650197 -0.7136442492183179 12.787488033735753 0 0 0
377 0 2 2.4781316653301455 -0.7300761812544664 12.870568360736701 0 0 0
118 0 1 -0.3642162411310262 2.281785484408891 11.145939483195077 0 0 0
117 0 1 0.3982672763983446 2.4795050623030974 11.665037023918563 0 0 0
116 0 1 0.6146811787377144 2.3739780791567204 12.565178662850638 0 0 0
374 0 2 1.8788789503824177 0.1788658170592226 12.119747142437982 0 0 0
373 0 2 2.3909149946160135 0.9991125785680565 11.909300222531213 0 0 0
109 0 1 -1.2429744900173088 -1.4475379219203182 13.34507611544313 0 0 0
110 0 1 -1.7817910655409595 -0.7422570373074215 12.91976103039537 0 0 0
107 0 1 -0.11967268195705633 -2.2412838663009502 13.197139261383155 0 0 0
108 0 1 -1.046196141442046 -2.3733635960789714 12.995501126903974 0 0 0
105 0 1 0.8523875805308888 -2.1346662526701508 14.608987702128832 0 0 0
106 0 1 0.0025835290470296772 -2.1127975226879268 14.21760569049426 0 0 0
104 0 1 0.7030017798196062 -1.2047749610228171 14.810762076689892 0 0 0
112 0 1 -1.5269821372477697 0.6163317260396878 13.088392429993462 0 0 0
111 0 1 -0.9606578153792192 -0.18581279972961695 13.081424091494041 0 0 0
113 0 1 -1.1849161726460782 1.5603755444971803 13.048414342247431 0 0 0
85 0 1 0.6245578577768681 -0.1759250086987518 12.260198093963119 0 0 0
87 0 1 -0.15440827417604985 -0.6215176420119993 13.841555043188949 0 0 0
86 0 1 0.28054989911582523 -0.1527410317154576 13.164025000712545 0 0 0
114 0 1 -0.6094894839970627 1.9760294000308927 12.479618310380287 0 0 0
376 0 2 2.3451787737034784 -0.24344566566667414 13.669045155372611 0 0 0
103 0 1 0.18871659807552837 -0.3316364286595743 14.998494795385534 0 0 0
101 0 1 0.8688574224593063 0.7979969089340586 13.621341568329408 0 0 0
100 0 1 1.6174899333099084 0.7755460234500513 14.32107292325113 0 0 0
375 0 2 1.8346992745705233 0.24928678887203434 13.047023406982367 0 0 0
115 0 1 -0.12180264520801444 2.3388264394995275 13.22223399277666 0 0 0
98 0 1 0.5908716332092385 1.966273674271834 14.754419022201791 0 0 0
99 0 1 1.2454782074293556 1.6540225689933097 14.184241117854079 0 0 0
93 0 1 -2.1112520881332113 0.5345687082781541 14.734609307135015 0 0 0
91 0 1 -1.7246803982014467 -0.7626944776125608 14.71783498438843 0 0 0
92 0 1 -1.5069689481376225 -0.017019624207400455 14.212737628076702 0 0 0
88 0 1 -0.6063654045490896 -1.1357523226759343 14.57253731565396 0 0 0
89 0 1 -0.9683359252003245 -1.997044451771579 14.33331150887704 0 0 0
90 0 1 -1.863943460737323 -1.782335883802703 14.694577928780424 0 0 0
102 0 1 0.3820498695454986 0.2542233288159035 14.254133962594018 0 0 0
94 0 1 -1.7843931709276897 1.4295564861976333 14.806903944906885 0 0 0
95 0 1 -0.9514979941939333 0.9078499719550368 14.576589716203046 0 0 0
97 0 1 -0.23202832090754913 1.663591129538427 14.336321655614448 0 0 0
96 0 1 -0.49354510947103886 0.9949619723409894 13.73746014403495 0 0 0

Velocities

169 -1.1495681121647432 -0.11476080532009077 -1.3042430049383065
168 0.003921518443691513 0.972437640293765 0.06637002778832264
171 1.4558175166270573 -1.0501076656302282 0.32415032746159744
170 -0.3796526490101928 0.10493813240588694 -0.22841876293173033
185 -2.410302802155181 0.8393556779519515 -0.29665518521577117
186 -0.32322446305650826 1.674334395164277 1.0712982471977477
179 0.3240471455509728 -0.9342080834527305 0.7553252153683137
178 1.3599384449388559 1.1547819755347846 0.4882943536150661
182 1.2351835740624872 -0.8513341144612065 0.13432872527675924
180 -0.8383296601393315 0.324474882957965 0.08462632129488235
181 -0.2584591762764392 -0.9032854048267663 1.1764766157733721
183 0.837608355419923 1.4625044937781642 -0.6867384159738215
184 -2.386336720052155 -0.7157423800827087 -0.6772908570237669
304 -1.1733832772857398 1.43509578660469 0.38962719202162466
303 2.120353777152161 -0.022165004855142445 1.0585547114832923
301 -0.766840093456464 1.5848494527168133 -0.5630425421279205
166 -0.3260478041777645 -0.4203375113337192 -1.0360676555775288
167 0.9991350767004387 0.7440117956202758 0.9995922965073464
172 -0.8781537979099323 -0.28218425590474927 -0.8441285102847942
173 -0.08589170876304848 -0.9298717421052445 0.534798179816419
187 0.29540138002709254 -0.34814906486981334 -0.19212443672252383
188 0.987277215641233 0.574414730093858 0.2143340849000533
177 -0.5733069521666467 -0.2832027169938544 1.0986412200941003
176 1.0369761018434998 0.6812554627010813 -0.034629870159697665
175 0.8514816927333378 -0.08417451683999626 -1.2887204441779794
299 0.6370171275886012 -0.3843094624098844 -0.19514754694648273
174 0.34961953205926555 1.008702255078724 -1.200628321864127
300 -0.9909203030389887 -0.3975178561459685 -0.4138201604794167
308 -0.29459459039426095 0.3225818074169774 0.16892769141015374
309 -1.8377095254776774 -2.1276045232953984 -0.07603935076477683
310 1.2310579658556913 -0.09732681154367911 -0.4363074193210015
298 -0.6281717277772492 -0.376371544610936 -0.4275915943780082
297 -2.607893704828734 -1.253205817425785 0.053463639984206064
296 -0.40073625765670134 1.8902387461352739 0.5284974745734553
302 -1.4092122521104178 0.1295742577702228 -1.9579485598229778
306 -0.21841381515328778 1.9662107607505277 -0.6045988253975276
305 0.05598529913493423 -0.13846846211272062 0.5038419120380351
307 -0.6887979437598543 -0.0919864374403601 -1.050124218694661
165 0.3304268348334813 1.353932393903456 1.099195698103576
164 -0.6742099301723311 1.4222366749160884 -0.056796641619080004
191 -0.1715129492499692 -0.41882084539171766 -0.3047503094075247
190 1.9304057424198942 -0.553935670542388 -0.19484999231228575
192 0.37926649720744776 -0.8695598874826368 -2.02938017921519
189 -0.9282128498874737 -0.5444193691197456 1.0612625041566297
163 0.1304763326713167 -0.8580667758839897 -0.1020252133376743
162 -0.7481620790889263 0.5295978350872079 0.6816013721258627
160 -0.3370734886361309 0.6658873669567633 0.00615383055638398
161 0.9257226088713691 0.7460698706800073 -0.07093902305971363
295 -0.5185750012016394 -1.6786555155947958 -0.23029320882276708
312 -0.28298110133266513 0.5845804165362816 -0.40304512754277344
313 0.27068520657023987 1.5043793087483706 -1.0905490413428343
311 0.9947590657562876 0.7400064348365842 -0.2169696172310435
279 2.455707552326552 0.1500638446850787 2.835352397423147
277 0.20725502921700917 0.7049960612988959 -0.09743214711588749
278 0.42174637019324246 -0.14806674157881244 2.1318326690025953
294 -0.958732240334491 -0.641512435905256 -0.18208883443538934
314 0.5761985435178225 0.9811934795995365 0.29517678804956404
315 1.6705618091615233 -0.7120738734351086 1.029307559956247
280 -1.3642466501199757 -0.02689515788512936 0.4884176712793351
293 -1.2180326905653418 -1.493163993292703 0.5526667692515954
316 0.6732504822372947 0.20631147697016444 1.8526942866157152
317 -0.5051846950634827 -0.27779591246868274 1.5757443879248887
193 -0.8624495067104392 -0.4613100313831461 0.5024185990698895
194 0.7236272546879603 1.1210314557216472 1.825256727502998
273 0.10530538828791995 -0.3164429194013984 -0.041424263397705254
274 -0.08558244903597353 0.2869904906805638 0.6434365261284841
275 -0.8901571445774329 0.19576934974063215 0.3510200557033355
159 -0.6527981669868952 -0.5321509538993031 1.1998921396846678
156 0.46980973492246736 0.6566358365529413 0.21019746946771153
157 -0.2315094822734162 1.0863698808985758 -2.008926718142352
281 0.5341072068163173 -0.7933742144232797 1.4645832852092906
276 0.7482071916161275 2.378993178344337 -0.6501928563162214
320 -0.7367605335283687 -1.1030279201754123 -1.332981023589846
318 -2.8966690410283524 1.0852644599345078 0.27933693424538625
321 -0.35406118662000874 0.6604542606511525 -1.5076842910469288
319 1.4040022491233197 0.2846055679063613 -1.5961573686918018
292 0.1262475221163014 -0.08155723681359826 0.29152444140399014
158 -1.1285975719885522 1.6524174515376364 -1.055821956862739
291 0.2014751812860185 -0.25623686194019074 1.3264308959027242
290 -2.4129269306080796 -0.6584149409582011 -0.653666302204784
153 0.7739371261923021 0.2552205645880746 -0.06917155714429722
270 -1.7609176694252078 0.5816227378126766 0.49581346758841066
271 -0.687510856606476 -0.7125165079395058 1.2154511388461628
272 -0.8299061586342804 1.4797091445058583 0.47033613642697714
323 0.0047219628950280895 0.7696948816828973 -1.2559681265048555
322 0.6452762546832448 0.4064926877838994 1.1845103508603478
155 -0.5899421407323294 -0.4733321846475049 -0.7506966202490319
154 -1.6061241621185767 -0.27767052815542825 -0.9746250493835417
282 0.23330744363743744 0.3338546029006466 -0.7283512436453479
195 -1.26690981139307 0.24249063506112917 -0.6302719927049764
196 0.16833596006005933 -0.2678886441738725 0.370555841441754
289 -0.3263955506219253 -0.029817865775877604 1.357784288331291
197 -0.1224276770489267 -0.7827918398541445 1.3054685979261724
288 -0.25280553252558047 -0.7503935255900464 0.7283215501837086
287 0.5966607897890622 1.4395304158134512 1.0106353737804419
286 -0.8163546212504562 -0.5782904200870546 0.3651909345306561
285 -0.8902886038509451 0.09652876980836375 -1.70751980198185
283 -0.5842162400807587 1.1806158619336449 -0.13751160219498143
284 -0.3426876360226263 0.2926081982760123 -0.859232286212829
152 -1.25910237324278 -0.7504631045988885 0.303711573317918
151 0.2838780866662118 -0.2677662544361618 -0.13319757449056935
150 1.5298734244837668 -1.4901326124219039 0.7636307096464692
269 1.8911044645256758 -1.3675466437682782 -0.6671298419388086
268 0.5272533792894151 -0.23562684196655218 -0.5968195391765061
324 -0.31395164838989076 -0.07026002672370879 0.6010944640368874
267 0.6321763052107792 0.5208996502355773 0.9130585234119442
266 -0.12997265264345312 -0.9167596132889905 -0.20774820636415323
2 0.5555257997632868 1.6255141455913762 0.6787340056460672
199 -0.7791664543875296 -0.46265812747332197 1.3713119847880817
200 -0.2969266769194275 -0.9491344798756396 -0.08482919972818317
1 0.06160484108446134 0.545283279331683 0.33741150716444135
198 0.1511909269319314 1.9594462252504468 -0.8194460347182494
328 1.0660040763432326 -1.1937868470150945 -1.3327685982700397
325 -1.3692354504225162 -0.5734284885783358 -0.21328157821625876
326 0.8115437975892789 -0.43779995589383386 -2.8829312743151587
327 -0.2811873727588928 0.2586112027154115 -1.3849931390218966
3 0.22297350560718798 1.0668820511269277 -2.685032709123789
5 0.22768627695205287 0.13908959355025607 0.12830017885212536
4 -0.08969637970210242 -0.5129865593550665 -1.8099796163412
6 0.44876985072390857 1.6822273873729963 -0.21626346901570903
7 0.2254875098246451 -0.7761121640572796 0.09414920995967013
330 -0.6583260681114178 0.9596947759095109 -2.374451107438228
329 -1.5663741907180433 0.4229922157865921 -1.889088120850875
331 -0.3580169498744944 -0.3286598683870972 -1.8686534408813404
262 -1.527186610416179 0.0056786707786972285 0.7073031279657658
263 -0.36477725515289017 1.93139425566206 -0.15553524137312277
264 0.7529271051213691 -0.8910522519665142 -1.5279523343174406
265 0.8102290688655736 -1.1484936705590933 0.37818985396004473
13 -0.6606642830514907 -0.13162565323356343 0.06301154758677631
14 -1.8293749813780449 1.9346785497776193 -0.5088287262632212
148 -2.2986111546414723 0.2906462712596707 1.7994930235336823
149 1.1889722684652213 2.1827285219708883 -0.9059899253036273
51 -0.1999892006095958 0.7674483763318257 0.7052896373409033
48 -0.9521612140033839 0.6275367251696677 -0.4860373527397518
9 0.42162301582896217 1.070824284993867 -1.583160839533432
10 -0.2743023319617026 1.7103442920230636 -1.6480334697797843
52 -1.2829021094480144 0.5163685783442731 0.08637456002623584
17 1.4209118195830033 0.9462279991424701 -0.05003783969638896
12 0.2798610287016202 -0.6902112066772679 -0.677679819355494
11 0.6054785164826194 0.03486250961860907 -1.3929175622850976
16 1.5750767350682386 0.8076383444117613 0.4063272496513166
49 1.2767254943467996 1.0756301525477854 -0.043435517503919115
50 -1.5603056770475994 1.5580634019757302 0.23666326534401516
333 -1.2806521777838396 -0.9812154061118108 -0.11808952515801302
8 -0.6459866591969499 -0.6197808659411393 1.4886760919492645
332 0.4241998149179838 -3.091741551058867 -0.914364868439515
147 1.8116683670675413 1.44141432089096 0.03077340838505982
261 -2.2288692499302654 -0.216753140056531 -0.8327035997149529
258 0.42270007314589175 -0.3818273493252635 -1.4461555115494462
259 -0.885308661329732 -0.4034243807667775 -0.5447955594887953
146 1.3497533879999455 0.3069472755150614 1.4294881874697114
260 -1.0127309841981902 1.8272840445507892 1.8373975852392677
46 -1.539931120028591 0.35852959817060254 0.6544189870420306
47 0.06422506520022765 -0.8741229262160256 0.9100485151510497
18 1.227331412963657 0.9460689096728968 -1.0128694224523078
20 -1.4002203214625812 0.7881333152989809 -0.6629506241619767
19 -0.0031823372905598977 1.5787568779823902 1.0006641436057129
15 -0.6789060001353124 0.3074065491172129 -1.121578866290855
340 0.1471338165096886 -0.401464768801371 -0.9258913512481008
334 0.4720706553174368 -1.7473601791880926 -2.081003025879283
53 -0.3184241208894246 1.6137485849946371 -0.17152764022344047
54 0.5076533756679837 -1.1309655801227274 -0.9794948304880644
336 0.19903613880192425 1.833950973427422 0.6228717894220748
55 0.1273787063942784 1.1593156788336334 -0.3278323592200862
335 1.3446793411810023 1.9590162817495027 0.4825045133346989
145 0.45849234704547326 0.26518506743651526 -0.7501866198659463
143 -0.22921627609773432 1.4864528752579549 -0.5420952752356755
257 0.5542925678653207 -0.5864651369017326 1.1932445877561972
256 0.4182149305005718 -1.3668352110558002 -0.9583497808671061
342 0.2229885304044132 -1.1983362775322703 -0.634165253452327
45 0.13185056551266985 -0.20311930053666283 0.373747159932466
144 2.123446705613399 0.9000423816249714 0.4904892865506809
41 1.1303901744366267 0.35798336588589846 -0.6452172160716665
21 0.17832434475916528 -0.14285343690676228 -0.35646515874179313
22 -1.7492113950763848 1.0338927255386559 -0.2961595434921389
24 0.2655888696712867 0.494341317148343 0.6946144379360123
42 0.508700811305108 -0.3220086998578711 1.339606280657029
23 -1.7132760041703858 -0.9096068295182631 -0.48178020848218545
43 0.2363195900998471 -1.2085714413510253 0.4606818835661618
30 -1.6281138812053666 -1.7587086572752644 0.05677973769801668
341 0.015865145479080883 -1.5653858364547435 1.1668071886818265
339 -1.6695877343372358 -0.3211757612821411 0.15984488447766446
25 -0.9863857229882927 1.3417671815412133 -1.1342744906054023
26 -0.2348251821061763 1.4628539057519208 0.47784674899228274
44 0.19042609378845596 -0.004643882424533535 -0.06053685713900195
56 -1.5439875747678034 1.9520979764764403 0.911094283025408
57 0.6773679406080163 0.22448939352935243 -1.3653268175102165
338 -0.2828267199509166 -0.7486264851128517 1.0389997382007135
337 0.4135561943090519 -0.43158255893890574 2.2124592213240835
29 1.8237588788810981 0.056960801997057976 -0.2751033837072756
142 0.05142161970770448 -1.2481850509910153 1.648809716098413
141 0.3978374190274181 -1.170720603496087 -0.0876789314769247
255 1.291727102773707 -0.31813742349662366 -0.3091756451599986
254 0.3017311592545127 0.20139452903631186 0.6058323246133893
253 0.40748559858729516 -1.2022893417697451 0.541305183160717
344 0.7492986643425553 -0.7439331074293918 -1.1130037786271236
343 -0.19790562133724757 -0.7054933512604727 0.5824838759405355
39 0.5276786475413063 0.6093697238210859 0.15469024161443728
40 -0.1372562319145273 -0.14761079411375155 -0.6653887404023251
31 0.26725549857049524 0.5175737393372972 0.7712695669292563
32 -1.6122265014633452 1.408273526457964 -0.29608384681701766
38 1.3851814603156172 0.3245093411486767 -2.4468568911819375
27 0.5176594734001138 0.49231260432691715 1.0201840713150188
59 -1.427349477517057 -0.5032088685828081 0.4088547440333676
60 1.220496018709283 -1.667387352388466 0.4057803160104805
58 0.650416719619328 0.49020038675387506 -0.8756350262296182
28 0.5339229254975424 -0.36267461946482826 0.008714318518204214
34 -0.890033656276642 -2.1973642788485286 2.405349067118265
140 0.6045596541813625 0.10671085388921206 -0.5324893925819515
138 -0.24107320195421522 0.5091625588009134 -1.2048255815175817
252 0.8296400717515064 0.2480711990665621 0.43652866295342696
251 -1.2046340566912546 0.4140231607544296 -0.4395959247731088
345 -1.7725444813429878 0.7344821924152138 2.169270777617763
248 0.164247472336665 0.03354983707833375 -0.9878342030048507
346 -0.032043602784389474 0.6454863966666416 1.2254793068118257
139 -2.459716412581696 0.9390936243919777 -1.6877053870862453
65 1.7043432415335311 0.46438847214737344 -0.16454050581048468
66 0.43424062361510823 -0.22142801267758094 -0.36709782468578506
37 1.5057262442435955 0.7145126351333028 0.7697725884972081
351 -0.07344300573677062 0.15930967070780172 1.223570677282214
33 -1.7652951362817952 0.34681251039238475 0.1530441738967956
352 1.453331994067143 -0.8653404739090044 -0.8861831393550431
353 1.4382999555217049 1.6859167830513981 -0.5609194871340796
347 -0.7047935863789161 0.5541348282646184 0.8963915892979133
348 -0.4372038055731897 1.0322938257925183 0.3665046371326482
350 0.6935433562784824 0.37678937840289306 -0.09444732051377241
349 -2.2138236212158984 0.7325095206770667 -0.9418055724333411
36 -1.2757026528062743 -0.6082176170128029 -1.1859666312580917
63 1.0037694728974424 1.6515428898963673 -0.509213516455748
62 -0.027379931508997618 -1.5033921556189904 0.6355184254094005
61 0.46442517215427576 -0.22251686293602796 0.15343454404622692
35 -1.2703428589283856 -0.21230587988709482 -0.06096421138962907
137 2.0003764202399634 -0.04441706358369987 0.9834276832868883
250 -0.3481590071236322 1.2145147732658041 0.4075676031098086
249 0.9124402622513549 -1.2458365278464687 0.7939677012818765
136 -2.2176415717228184 0.6048693173439401 -0.08519376603684929
135 0.8568800431112942 -0.7656181077664151 0.02785528335490394
247 -1.2137431870356812 -1.246293204103856 1.101446227195697
234 1.0310230533026543 -1.6600433383641384 -0.1053740110734808
203 -0.8389020470017688 1.1705319198650865 1.2991270326654805
67 0.2232660407435748 -1.9744502301139564 1.3682071430377454
68 1.1924623049449572 -1.4615262149587023 0.46346741594502955
201 0.9340289192042743 2.0155998648057074 0.9050291548447884
202 0.20288685571910958 -0.6708485805684321 0.5032734117446371
400 -0.45976911938826853 -0.34679525410804973 -0.5184442428003879
399 0.14532704085267703 0.0944253853874174 0.46202245563899846
245 0.8381827919572756 -1.5817763836840062 1.3048853534188325
246 0.9515768334873984 0.27837218263430075 0.1349991528298774
244 -1.0635479767154945 0.9082172546610751 -0.56819703812981
64 1.2485993252975822 -1.2240301897706347 -0.040580211433758534
354 0.27308245223644284 1.1837401151328792 1.5117158506528892
355 -0.8609936756997407 0.4264205599113955 -0.2551147311299363
356 0.42494519830168476 -0.6711445541253624 0.15881917637340032
243 0.881933904295623 -1.4724655136395433 -0.4590289388654536
134 1.1651881356416862 -1.2202206190995615 1.0110846961840896
206 0.9095745880669279 0.6221981246378517 -1.3637285623879212
205 -1.0254350546596935 -0.11569570015286436 -0.9359369559336012
132 -1.6773709581970104 -0.3147610015788553 -1.2360636353512797
133 1.1233919938052592 2.2158657734717675 0.7655966535560044
233 -0.514729108185374 -0.010728393230184432 -1.9137616999738505
232 0.7571034169539806 -0.46410512604134724 1.435179313401932
235 -0.030132799570059078 -0.7215788292240911 0.19991881926498234
69 -0.7160433463252489 -1.4641233764670394 -0.19470491367084378
204 0.5551241199653763 0.974177857111494 -0.4539202781423421
398 0.04798793259717096 2.0003347334438644 0.37950041813401203
397 -0.028277376986304587 0.764814967519408 0.41700598826128704
396 0.9054490729543566 -0.358462815064114 -0.36896243023016234
238 -1.0933737235600038 1.1395338885467479 -0.9744468532184786
237 0.7202194703011566 0.39049963425355816 0.766130756289322
236 -0.0853682034773833 -1.6816525249213539 -0.7022928970534076
70 -0.8817434727161223 -0.43139818178920186 -0.16679997728134865
71 -0.7423095473894472 -1.083996822431765 -0.05931002213160032
357 0.843803178652497 -0.5268196002909127 -0.3261584287706575
358 -0.20171241364597284 1.0884493333303438 1.1560025162240488
242 -0.38264745826511676 0.7261486293398947 0.7635409073902516
241 0.8602002001730085 -1.160383877903165 -0.8512471574563542
240 -1.4657930665709635 -0.9978480916381616 -0.2536063731823385
239 0.4782434834410361 0.02208531461591437 0.9014297016987203
207 -0.0898534819345137 1.5056123748207741 -0.48297220372663785
131 0.47734028199606376 1.333739868131728 2.115651068554877
130 -0.8071620497342653 0.8044778168502447 -0.8668308201878686
230 0.0016186166635580312 0.3729793439353898 -0.17557885680246738
208 1.7580308045026483 -0.5904232685611317 -0.1019137460986832
231 0.7955615337745059 0.7609185315444499 -0.05297863331661995
73 0.4338761453722288 0.8811646086222057 -1.5925864166831245
74 -2.758872126002288 -0.2758134139811784 0.49730294557452903
75 0.23936669546549055 0.5658838496262047 -1.8579661415262168
395 -1.8411727465869079 -0.28181111931574415 0.9141006508214867
394 -0.42184187032132336 -1.3442203293308161 -0.31995111735596815
229 -1.3190308298235076 1.5801037028630718 -0.4848890951664435
393 -0.6698452506195683 0.2638155402456501 0.9866637593632775
392 -0.5147671600443255 1.6724421452241063 -0.9197531218496989
388 0.35162027474257945 0.13945887425298817 0.3426698623964678
228 -0.36929968747622455 -0.6013796271982639 1.100500504043131
387 -0.5140756107578277 -0.8507900808638823 0.5823610791424649
362 -1.534109982788498 0.5879378039801799 0.11815049546695784
72 -0.47065720658823296 -0.4574586086465334 0.3422191349996584
360 -0.3892075902773871 -0.06852107909767921 0.4177857522245436
359 0.23239098133157488 0.8253605971606681 2.869186116654835
389 -0.056950739720081606 1.7973663316080954 0.2867021725464871
128 -0.7068095874182692 0.5908628341549771 -1.122990970310553
129 -0.9526407200834272 0.31801643998330753 -0.7373560775322997
211 0.7517527720581646 -1.2284042016548393 -0.4176197119598256
212 -1.746225788129512 0.09589057213090042 -0.6556334993269786
76 1.7005584291931222 -0.2575595360623707 0.15350043537390604
77 0.759000829918342 2.8821485334652714 2.4421847855358947
210 -1.0056812569351208 -0.22941839273714287 -0.450650978264718
209 -0.7463013741229739 0.7335204569399462 0.3301887041674011
227 0.4367651425356335 2.0650167538696826 1.0306809570194453
226 -0.2126952471984482 0.48422785005316155 -0.2857328257357945
386 0.2149272617763511 2.375782104874398 -0.09913747519514776
364 0.361947959307661 0.7842626538442325 -0.07313027822874524
365 1.1982151141717696 -0.565438382530981 1.1723153415200036
361 -0.011427608784657636 -1.2329844767869902 0.48135125905636356
363 0.8159903203346592 -0.5893370802089595 -0.12134904100776929
390 0.004122063830108574 -2.2366005785393184 0.7170096519598378
391 -0.6680248451164177 -0.8106789989326904 -0.19896465971272076
127 -1.6391246254499745 -0.27423467364390797 0.8596466843820075
126 0.819017057666497 0.4803122932087463 0.19258400415134183
214 -0.7712453997614732 0.884920623649495 -0.32232357539855533
215 0.7277433880159115 -0.9834996052533532 0.19867112337393955
213 -0.24188928685875866 -0.877923798795043 -0.390978961456964
382 -1.9234979635469558 -1.2830648359143686 0.246928844452861
78 -0.2692903044917469 -0.9217265064747844 -0.25756429059521296
80 -0.07888398170185107 -0.3766012909333919 -0.8722415917101319
125 0.7569146808422618 0.2609623017889294 -1.5908532127104213
79 -0.31443305070170696 -1.4171524561989663 -0.8093481497988604
224 0.7346253148360319 1.3676054054583024 -0.06180972270353384
225 1.2147977031635666 1.557323437770431 -0.5701951503303403
385 0.2451381842212827 -0.40915778156106036 1.258981686591066
384 -1.0738083413111772 0.5551395807548003 -0.07315872807253415
383 0.6248543014625996 1.8808012785206438 -0.8279059921009928
371 -1.3626944109237744 0.24578959839468548 0.34581050862296625
120 -0.9423743121620033 1.4158561053960401 0.02052006575009646
119 -0.9019858299813314 -0.05814966167804383 0.418245632102293
368 0.5944412663055094 0.43105311516376404 -0.18652996341170713
366 0.8524689524834492 -0.7282892215847493 0.3188470803251525
367 1.2676948224123423 0.5051599659407985 1.8334763701629686
369 -0.6254285386837473 -0.9948986254271277 0.4175342600625732
370 -0.9077346156156494 -1.4260663577772743 0.21392550352196216
217 -2.6266388515017667 0.016855489909027715 0.429315094293217
218 -1.498556224985986 -1.7696753691273743 0.36356826205357323
222 0.8144379789823696 0.19436204055251008 -1.3115045676327954
221 -0.983405469410051 0.8342655356095361 1.9262101440770008
216 -1.1471184999316153 1.1015211603638713 1.270021115799983
220 0.8071442934320003 0.5249859910842712 -0.4819586948313738
219 0.36122955027029857 0.8149911941544328 1.0076429665083686
381 -0.21996201695873552 -0.25895014873747435 0.989104320495176
380 0.6937984167985646 -1.238180864490616 0.1725368334944635
124 1.1522935866838304 0.43203303690607797 -0.7207942506172286
123 -0.21812799877922903 1.1968084537446582 0.11582661842234254
121 0.7495365280247115 0.3927586402861552 -0.852155911801361
122 -0.29121572804065765 0.6347521814322512 0.9529341985855175
223 1.2994471992882537 -0.12724787336429166 0.08564031748036871
81 0.8439586728617093 -0.23420623716093153 0.869340351240026
84 -0.4444632595306334 0.21190661202908603 2.530653743336509
82 0.7946878189999576 -0.7665975844285016 -1.6428276041025864
83 -1.7824414868296723 -0.743594708914158 0.7803380168169299
372 -0.9941452948219326 1.7804692327985931 1.5218718436879837
379 -1.4980222418756437 1.4095474969069903 -1.0552560147224403
378 2.2496951411723463 -1.4181827696944644 -1.2340845282013055
377 -0.9418019209161934 0.7739611550996399 2.915066591145925
118 -1.5266366646951837 -0.584523990440735 -1.0782696430185765
117 -0.6883854409312667 0.8397841815213711 0.6121893084030523
116 -0.9393601840738536 -0.6837050691969708 0.27985640706976467
374 -0.21095171598870516 0.059549444076834025 -0.3745863700062634
373 -0.8728099071684884 -0.7991195283474118 -1.0906275895715958
109 -0.9214245735752357 -0.016512647147683496 -2.280360627871734
110 1.1122974266097199 2.075429223818887 -2.3638986533392377
107 1.177853853777154 0.7179846861459549 1.2518857987082872
108 0.3012465493953076 -1.9217645871655262 2.081118753909075
105 0.22391913942635877 2.1250683798420047 -1.0227127945778924
106 -1.4702371021089058 -0.33318301678141715 -0.516780705604729
104 -2.133972194869706 -0.22173720879883627 -0.26768122086024787
112 0.6735498659005085 -0.021148397641430276 0.5160289105190717
111 -1.6291855892238507 -0.38979152746300594 0.6023451781265965
113 -0.19022515582936733 0.011723780455617172 1.533807001937021
85 -0.18467288022064576 -1.376004117069179 1.5979334383146173
87 0.2621480553384802 1.1097397195230758 0.39975063811875633
86 0.1653848356497991 0.21008888563497877 -0.8855188682826518
114 -0.14708190003746552 0.38185532784529896 -0.7673403941817305
376 0.8250588652090255 -0.5877331263047361 1.0170760977841404
103 -0.9634828582311451 0.36151946362373666 -0.556813954657682
101 -0.10558906585766906 -0.34183211178356376 0.8193925376842099
100 1.3434927517249258 0.37886504958453004 -0.7378117081355613
375 1.0756085631775902 -0.5187232840710964 -0.9569533240049373
115 -0.14811529559510303 0.10879519306027688 -0.7396794317338876
98 -0.19795401256109196 -0.7200729680889195 0.6630832624014068
99 0.06238587836007668 0.03046729506131539 -1.8163100601322268
93 -1.272400749689088 1.058165426935362 -1.3585584281983771
91 -2.2247696571099773 0.8996019149231027 0.46383376754972183
92 0.2648015543163172 1.058343329221265 -1.0119227998192306
88 -1.2760271299074664 -0.6041249654493257 0.9653562951592751
89 -1.4975290003215675 0.2046962584926964 2.1014690236891314
90 0.4666658693668594 -2.3925105384421292 -1.13143391517194
102 -0.5215893837655181 0.6465448789851075 -0.7710577965450113
94 0.19005815614108024 0.8069980630633081 1.193983188982727
95 -0.3979361991683491 0.22306771132491532 0.9168522684143705
97 -0.4105214479058037 1.183666324501957 0.3701565140047704
96 0.9885340886669765 1.2851538026301794 -1.249286598491556

Bonds

1 1 169 170
2 1 168 169
3 1 171 172
4 1 170 171
5 1 185 186
6 1 186 187
7 1 179 180
8 1 178 179
9 1 182 183
10 1 180 181
11 1 181 182
12 1 183 184
13 1 184 185
14 1 304 305
15 1 303 304
16 1 301 302
17 1 166 167
18 1 167 168
19 1 172 173
20 1 173 174
21 1 187 188
22 1 188 189
23 1 177 178
24 1 176 177
25 1 175 176
26 1 299 300
27 1 174 175
28 1 300 301
29 1 308 309
30 1 309 310
31 1 310 311
32 1 298 299
33 1 297 298
34 1 296 297
35 1 302 303
36 1 306 307
37 1 305 306
38 1 307 308
39 1 165 166
40 1 164 165
41 1 191 192
42 1 190 191
43 1 192 193
44 1 189 190
45 1 163 164
46 1 162 163
47 1 160 161
48 1 161 162
49 1 295 296
50 1 312 313
51 1 313 314
52 1 311 312
53 1 279 280
54 1 277 278
55 1 278 279
56 1 294 295
57 1 314 315
58 1 315 316
59 1 280 281
60 1 293 294
61 1 316 317
62 1 317 318
63 1 193 194
64 1 194 195
65 1 273 274
66 1 274 275
67 1 275 276
68 1 159 160
69 1 156 157
70 1 157 158
71 1 281 282
72 1 276 277
73 1 320 321
74 1 318 319
75 1 321 322
76 1 319 320
77 1 292 293
78 1 158 159
79 1 291 292
80 1 290 291
81 1 153 154
82 1 270 271
83 1 271 272
84 1 272 273
85 1 323 324
86 1 322 323
87 1 155 156
88 1 154 155
89 1 282 283
90 1 195 196
91 1 196 197
92 1 289 290
93 1 197 198
94 1 288 289
95 1 287 288
96 1 286 287
97 1 285 286
98 1 283 284
99 1 284 285
100 1 152 153
101 1 151 152
102 1 151 200
103 1 150 151
104 1 269 270
105 1 268 269
106 1 324 325
107 1 267 268
108 1 266 267
109 1 2 3
110 1 199 200
111 1 200 1
112 1 1 2
113 1 1 50
114 1 198 199
115 1 328 329
116 1 325 326
117 1 326 327
118 1 327 328
119 1 3 4
120 1 5 6
121 1 4 5
122 1 6 7
123 1 7 8
124 1 330 331
125 1 329 330
126 1 331 332
127 1 262 263
128 1 263 264
129 1 264 265
130 1 265 266
131 1 13 14
132 1 14 15
133 1 148 149
134 1 149 150
135 1 51 52
136 1 48 49
137 1 9 10
138 1 10 11
139 1 52 53
140 1 17 18
141 1 12 13
142 1 11 12
143 1 16 17
144 1 49 50
145 1 50 51
146 1 333 334
147 1 8 9
148 1 332 333
149 1 147 148
150 1 261 262
151 1 258 259
152 1 259 260
153 1 146 147
154 1 260 261
155 1 46 47
156 1 47 48
157 1 18 19
158 1 20 21
159 1 19 20
160 1 15 16
161 1 340 341
162 1 334 335
163 1 53 54
164 1 54 55
165 1 336 337
166 1 55 56
167 1 335 336
168 1 145 146
169 1 143 144
170 1 257 258
171 1 256 257
172 1 342 343
173 1 45 46
174 1 144 145
175 1 41 42
176 1 21 22
177 1 22 23
178 1 24 25
179 1 42 43
180 1 23 24
181 1 43 44
182 1 30 31
183 1 341 342
184 1 339 340
185 1 25 26
186 1 26 27
187 1 44 45
188 1 56 57
189 1 57 58
190 1 338 339
191 1 337 338
192 1 29 30
193 1 142 143
194 1 141 142
195 1 255 256
196 1 254 255
197 1 253 254
198 1 344 345
199 1 343 344
200 1 39 40
201 1 40 41
202 1 31 32
203 1 32 33
204 1 38 39
205 1 27 28
206 1 59 60
207 1 60 61
208 1 58 59
209 1 28 29
210 1 34 35
211 1 140 141
212 1 138 139
213 1 252 253
214 1 251 252
215 1 345 346
216 1 248 249
217 1 346 347
218 1 139 140
219 1 65 66
220 1 66 67
221 1 37 38
222 1 351 352
223 1 351 400
224 1 33 34
225 1 352 353
226 1 353 354
227 1 347 348
228 1 348 349
229 1 350 351
230 1 349 350
231 1 36 37
232 1 63 64
233 1 62 63
234 1 61 62
235 1 35 36
236 1 137 138
237 1 250 251
238 1 249 250
239 1 136 137
240 1 135 136
241 1 247 248
242 1 234 235
243 1 203 204
244 1 67 68
245 1 68 69
246 1 201 202
247 1 201 250
248 1 202 203
249 1 400 201
250 1 399 400
251 1 245 246
252 1 246 247
253 1 244 245
254 1 64 65
255 1 354 355
256 1 355 356
257 1 356 357
258 1 243 244
259 1 134 135
260 1 206 207
261 1 205 206
262 1 132 133
263 1 133 134
264 1 233 234
265 1 232 233
266 1 235 236
267 1 69 70
268 1 204 205
269 1 398 399
270 1 397 398
271 1 396 397
272 1 238 239
273 1 237 238
274 1 236 237
275 1 70 71
276 1 71 72
277 1 357 358
278 1 358 359
279 1 242 243
280 1 241 242
281 1 240 241
282 1 239 240
283 1 207 208
284 1 131 132
285 1 130 131
286 1 230 231
287 1 208 209
288 1 231 232
289 1 73 74
290 1 74 75
291 1 75 76
292 1 395 396
293 1 394 395
294 1 229 230
295 1 393 394
296 1 392 393
297 1 388 389
298 1 228 229
299 1 387 388
300 1 362 363
301 1 72 73
302 1 360 361
303 1 359 360
304 1 389 390
305 1 128 129
306 1 129 130
307 1 211 212
308 1 212 213
309 1 76 77
310 1 77 78
311 1 210 211
312 1 209 210
313 1 227 228
314 1 226 227
315 1 386 387
316 1 364 365
317 1 365 366
318 1 361 362
319 1 363 364
320 1 390 391
321 1 391 392
322 1 127 128
323 1 126 127
324 1 214 215
325 1 215 216
326 1 213 214
327 1 382 383
328 1 78 79
329 1 80 81
330 1 125 126
331 1 79 80
332 1 224 225
333 1 225 226
334 1 385 386
335 1 384 385
336 1 383 384
337 1 371 372
338 1 120 121
339 1 119 120
340 1 368 369
341 1 366 367
342 1 367 368
343 1 369 370
344 1 370 371
345 1 217 218
346 1 218 219
347 1 222 223
348 1 221 222
349 1 216 217
350 1 220 221
351 1 219 220
352 1 381 382
353 1 380 381
354 1 124 125
355 1 123 124
356 1 121 122
357 1 122 123
358 1 223 224
359 1 81 82
360 1 84 85
361 1 82 83
362 1 83 84
363 1 372 373
364 1 379 380
365 1 378 379
366 1 377 378
367 1 118 119
368 1 117 118
369 1 116 117
370 1 374 375
371 1 373 374
372 1 109 110
373 1 110 111
374 1 107 108
375 1 108 109
376 1 105 106
377 1 106 107
378 1 104 105
379 1 112 113
380 1 111 112
381 1 113 114
382 1 85 86
383 1 87 88
384 1 86 87
385 1 114 115
386 1 376 377
387 1 103 104
388 1 101 102
389 1 100 101
390 1 375 376
391 1 115 116
392 1 98 99
393 1 99 100
394 1 93 94
395 1 91 92
396 1 92 93
397 1 88 89
398 1 89 90
399 1 90 91
400 1 102 103
401 1 94 95
402 1 95 96
403 1 97 98
404 1 96 97
